[Molden Format]
[Atoms] (AU)
O    1    8           0.0000000000         0.0000000000         0.1243124509
H    2    1          -0.0000000000         1.5519031289        -0.9867410642
H    3    1           0.0000000000        -1.5519031289        -0.9867410642
[GTO]
  1 0
 s    9  1.00
    61420.0000000000         0.0000900000
     9199.0000000000         0.0006980000
     2091.0000000000         0.0036640000
      590.9000000000         0.0152180000
      192.3000000000         0.0524230000
       69.3200000000         0.1459210000
       26.9700000000         0.3052580000
       11.1000000000         0.3985080000
        4.6820000000         0.2169800000
 s    9  1.00
    61420.0000000000        -0.0000200000
     9199.0000000000        -0.0001590000
     2091.0000000000        -0.0008290000
      590.9000000000        -0.0035080000
      192.3000000000        -0.0121560000
       69.3200000000        -0.0362610000
       26.9700000000        -0.0829920000
       11.1000000000        -0.1520900000
        4.6820000000        -0.1153310000
 s    1  1.00
        1.4280000000         1.0000000000
 s    1  1.00
        0.5547000000         1.0000000000
 s    1  1.00
        0.2067000000         1.0000000000
 p    3  1.00
       63.4200000000         0.0060440000
       14.6600000000         0.0417990000
        4.4590000000         0.1611430000
 p    1  1.00
        1.5310000000         1.0000000000
 p    1  1.00
        0.5302000000         1.0000000000
 p    1  1.00
        0.1750000000         1.0000000000
 d    1  1.00
        3.7750000000         1.0000000000
 d    1  1.00
        1.3000000000         1.0000000000
 d    1  1.00
        0.4440000000         1.0000000000
 f    1  1.00
        2.6660000000         1.0000000000
 f    1  1.00
        0.8590000000         1.0000000000
 g    1  1.00
        1.8460000000         1.0000000000

  2 0
 s    3  1.00
       82.6400000000         0.0020060000
       12.4100000000         0.0153430000
        2.8240000000         0.0755790000
 s    1  1.00
        0.7977000000         1.0000000000
 s    1  1.00
        0.2581000000         1.0000000000
 s    1  1.00
        0.0898900000         1.0000000000
 p    1  1.00
        2.2920000000         1.0000000000
 p    1  1.00
        0.8380000000         1.0000000000
 p    1  1.00
        0.2920000000         1.0000000000
 d    1  1.00
        2.0620000000         1.0000000000
 d    1  1.00
        0.6620000000         1.0000000000
 f    1  1.00
        1.3970000000         1.0000000000

  3 0
 s    3  1.00
       82.6400000000         0.0020060000
       12.4100000000         0.0153430000
        2.8240000000         0.0755790000
 s    1  1.00
        0.7977000000         1.0000000000
 s    1  1.00
        0.2581000000         1.0000000000
 s    1  1.00
        0.0898900000         1.0000000000
 p    1  1.00
        2.2920000000         1.0000000000
 p    1  1.00
        0.8380000000         1.0000000000
 p    1  1.00
        0.2920000000         1.0000000000
 d    1  1.00
        2.0620000000         1.0000000000
 d    1  1.00
        0.6620000000         1.0000000000
 f    1  1.00
        1.3970000000         1.0000000000

[5D]
[9G]

[MO]
 Sym= A1
 Ene=        -2.1100397649e+01
 Spin= Alpha
 Occup=         1.0000000000e+00
  1         9.9221506596e-01
  2         5.3323070239e-04
  3         1.8241209108e-02
  4        -3.5747707023e-03
  5         1.0195589864e-03
  6         0.0000000000e+00
  7         0.0000000000e+00
  8        -1.6466377079e-03
  9         0.0000000000e+00
 10         0.0000000000e+00
 11         3.7455401019e-04
 12         0.0000000000e+00
 13         0.0000000000e+00
 14         1.1387023431e-04
 15         0.0000000000e+00
 16         0.0000000000e+00
 17        -7.5071893697e-05
 18        -2.7712405752e-05
 19         0.0000000000e+00
 20         0.0000000000e+00
 21         5.7700418234e-06
 22         0.0000000000e+00
 23         1.7171504303e-04
 24         0.0000000000e+00
 25         0.0000000000e+00
 26        -1.1980096772e-04
 27         0.0000000000e+00
 28         1.8593258576e-04
 29         0.0000000000e+00
 30         0.0000000000e+00
 31         2.6783577398e-04
 32         0.0000000000e+00
 33         4.4248892308e-05
 34         0.0000000000e+00
 35         0.0000000000e+00
 36         7.2439634928e-05
 37         0.0000000000e+00
 38         0.0000000000e+00
 39         0.0000000000e+00
 40        -9.6327131608e-05
 41         0.0000000000e+00
 42         0.0000000000e+00
 43        -8.6354649134e-05
 44         0.0000000000e+00
 45         0.0000000000e+00
 46         0.0000000000e+00
 47        -7.7694894930e-06
 48         0.0000000000e+00
 49         0.0000000000e+00
 50        -1.9144845927e-05
 51         0.0000000000e+00
 52         0.0000000000e+00
 53         0.0000000000e+00
 54         7.9783207071e-06
 55         0.0000000000e+00
 56         2.1625859859e-05
 57         4.3872043776e-04
 58         2.2170924872e-04
 59        -1.4314234218e-04
 60         0.0000000000e+00
 61         1.7603055537e-05
 62        -3.0278019905e-05
 63         0.0000000000e+00
 64        -2.3589160216e-04
 65         2.6086891094e-04
 66         0.0000000000e+00
 67        -2.0868352557e-05
 68         1.2659213987e-04
 69        -1.0078155099e-05
 70         0.0000000000e+00
 71         8.7640552059e-06
 72         8.1698810705e-06
 73         0.0000000000e+00
 74         6.8557233340e-05
 75         0.0000000000e+00
 76        -1.0543303296e-04
 77        -2.4960068827e-05
 78         0.0000000000e+00
 79        -1.0764306691e-05
 80         0.0000000000e+00
 81         6.3701604347e-06
 82         6.8742803646e-06
 83         0.0000000000e+00
 84         0.0000000000e+00
 85        -6.6798580835e-06
 86         2.1625859859e-05
 87         4.3872043776e-04
 88         2.2170924872e-04
 89        -1.4314234218e-04
 90         0.0000000000e+00
 91        -1.7603055537e-05
 92        -3.0278019905e-05
 93         0.0000000000e+00
 94         2.3589160216e-04
 95         2.6086891094e-04
 96         0.0000000000e+00
 97         2.0868352557e-05
 98         1.2659213987e-04
 99        -1.0078155099e-05
100         0.0000000000e+00
101        -8.7640552059e-06
102         8.1698810705e-06
103         0.0000000000e+00
104         6.8557233340e-05
105         0.0000000000e+00
106         1.0543303296e-04
107        -2.4960068827e-05
108         0.0000000000e+00
109        -1.0764306691e-05
110         0.0000000000e+00
111        -6.3701604347e-06
112         6.8742803646e-06
113         0.0000000000e+00
114         0.0000000000e+00
115         6.6798580835e-06
 Sym= A1
 Ene=        -1.7926814573e+00
 Spin= Alpha
 Occup=         1.0000000000e+00
  1         2.2371091804e-03
  2        -3.3013734917e-01
  3        -2.6255247856e-01
  4        -5.4798151967e-01
  5        -1.7747176315e-01
  6         0.0000000000e+00
  7         0.0000000000e+00
  8         2.0929589660e-02
  9         0.0000000000e+00
 10         0.0000000000e+00
 11         4.2855247916e-02
 12         0.0000000000e+00
 13         0.0000000000e+00
 14         5.5671167970e-02
 15         0.0000000000e+00
 16         0.0000000000e+00
 17         7.1082659460e-03
 18        -6.2288256958e-04
 19         0.0000000000e+00
 20         0.0000000000e+00
 21         1.4045406501e-03
 22         0.0000000000e+00
 23        -9.3695685082e-04
 24         0.0000000000e+00
 25         0.0000000000e+00
 26         6.4221530449e-03
 27         0.0000000000e+00
 28        -4.3312040198e-03
 29         0.0000000000e+00
 30         0.0000000000e+00
 31         7.4571256757e-03
 32         0.0000000000e+00
 33        -6.5499281055e-04
 34         0.0000000000e+00
 35         0.0000000000e+00
 36        -1.0247413295e-03
 37         0.0000000000e+00
 38         0.0000000000e+00
 39         0.0000000000e+00
 40        -6.8904388397e-04
 41         0.0000000000e+00
 42         0.0000000000e+00
 43        -2.2872880075e-03
 44         0.0000000000e+00
 45         0.0000000000e+00
 46         0.0000000000e+00
 47         1.9528037833e-04
 48         0.0000000000e+00
 49         0.0000000000e+00
 50         2.8725703305e-04
 51         0.0000000000e+00
 52         0.0000000000e+00
 53         0.0000000000e+00
 54        -8.5446280645e-05
 55         0.0000000000e+00
 56        -2.9047233244e-02
 57        -7.3647958677e-02
 58        -4.2748125958e-02
 59         3.0729853046e-03
 60         0.0000000000e+00
 61         4.9895813160e-03
 62        -3.1309580186e-03
 63         0.0000000000e+00
 64         1.1150799434e-02
 65        -7.5150444111e-03
 66         0.0000000000e+00
 67         7.1286433217e-03
 68        -3.8595638443e-03
 69         1.4429650427e-04
 70         0.0000000000e+00
 71         1.9097204236e-03
 72         1.4725918897e-03
 73         0.0000000000e+00
 74        -1.0985622114e-04
 75         0.0000000000e+00
 76         1.4538499854e-03
 77         1.0142906392e-03
 78         0.0000000000e+00
 79         3.0357580808e-04
 80         0.0000000000e+00
 81         1.6995903545e-04
 82         4.8642910439e-04
 83         0.0000000000e+00
 84         0.0000000000e+00
 85        -3.5758129790e-04
 86        -2.9047233244e-02
 87        -7.3647958677e-02
 88        -4.2748125958e-02
 89         3.0729853046e-03
 90         0.0000000000e+00
 91        -4.9895813160e-03
 92        -3.1309580186e-03
 93         0.0000000000e+00
 94        -1.1150799434e-02
 95        -7.5150444111e-03
 96         0.0000000000e+00
 97        -7.1286433217e-03
 98        -3.8595638443e-03
 99         1.4429650427e-04
100         0.0000000000e+00
101        -1.9097204236e-03
102         1.4725918897e-03
103         0.0000000000e+00
104        -1.0985622114e-04
105         0.0000000000e+00
106        -1.4538499854e-03
107         1.0142906392e-03
108         0.0000000000e+00
109         3.0357580808e-04
110         0.0000000000e+00
111        -1.6995903545e-04
112         4.8642910439e-04
113         0.0000000000e+00
114         0.0000000000e+00
115         3.5758129790e-04
 Sym= B2
 Ene=        -1.1676119615e+00
 Spin= Alpha
 Occup=         1.0000000000e+00
  1         0.0000000000e+00
  2         0.0000000000e+00
  3         0.0000000000e+00
  4         0.0000000000e+00
  5         0.0000000000e+00
  6         0.0000000000e+00
  7         1.5508738291e-01
  8         0.0000000000e+00
  9         0.0000000000e+00
 10         2.8785857866e-01
 11         0.0000000000e+00
 12         0.0000000000e+00
 13         3.4242417447e-01
 14         0.0000000000e+00
 15         0.0000000000e+00
 16         9.0470850011e-02
 17         0.0000000000e+00
 18         0.0000000000e+00
 19         0.0000000000e+00
 20        -4.5601777254e-03
 21         0.0000000000e+00
 22         0.0000000000e+00
 23         0.0000000000e+00
 24         0.0000000000e+00
 25        -1.8780125866e-02
 26         0.0000000000e+00
 27         0.0000000000e+00
 28         0.0000000000e+00
 29         0.0000000000e+00
 30        -2.1330179624e-02
 31         0.0000000000e+00
 32         0.0000000000e+00
 33         0.0000000000e+00
 34         0.0000000000e+00
 35         1.3503977846e-04
 36         0.0000000000e+00
 37         0.0000000000e+00
 38         0.0000000000e+00
 39        -5.4060203032e-04
 40         0.0000000000e+00
 41         0.0000000000e+00
 42        -7.4988402115e-04
 43         0.0000000000e+00
 44         0.0000000000e+00
 45         0.0000000000e+00
 46        -1.5902662809e-03
 47         0.0000000000e+00
 48         0.0000000000e+00
 49         5.0406719395e-04
 50         0.0000000000e+00
 51         0.0000000000e+00
 52         0.0000000000e+00
 53         3.8775583269e-04
 54         0.0000000000e+00
 55         0.0000000000e+00
 56         4.8328253392e-02
 57         1.3026540846e-01
 58         1.5530003168e-01
 59         4.5818249223e-03
 60         0.0000000000e+00
 61        -4.9457853665e-03
 62         5.0101781297e-03
 63         0.0000000000e+00
 64        -1.2021639601e-02
 65         1.3707921770e-02
 66         0.0000000000e+00
 67        -2.0526402528e-02
 68         1.8614737855e-02
 69         6.2910849866e-04
 70         0.0000000000e+00
 71        -2.5392175356e-03
 72        -1.0358960387e-03
 73         0.0000000000e+00
 74         7.8810004212e-04
 75         0.0000000000e+00
 76        -4.5675386851e-03
 77        -2.5479484876e-03
 78         0.0000000000e+00
 79        -3.6820335428e-04
 80         0.0000000000e+00
 81        -7.2145878738e-04
 82        -7.5866763271e-04
 83         0.0000000000e+00
 84         0.0000000000e+00
 85         1.6174607970e-04
 86        -4.8328253392e-02
 87        -1.3026540846e-01
 88        -1.5530003168e-01
 89        -4.5818249223e-03
 90         0.0000000000e+00
 91        -4.9457853665e-03
 92        -5.0101781297e-03
 93         0.0000000000e+00
 94        -1.2021639601e-02
 95        -1.3707921770e-02
 96         0.0000000000e+00
 97        -2.0526402528e-02
 98        -1.8614737855e-02
 99        -6.2910849866e-04
100         0.0000000000e+00
101        -2.5392175356e-03
102         1.0358960387e-03
103         0.0000000000e+00
104        -7.8810004212e-04
105         0.0000000000e+00
106        -4.5675386851e-03
107         2.5479484876e-03
108         0.0000000000e+00
109         3.6820335428e-04
110         0.0000000000e+00
111        -7.2145878738e-04
112         7.5866763271e-04
113         0.0000000000e+00
114         0.0000000000e+00
115         1.6174607970e-04
 Sym= A1
 Ene=        -1.0457608319e+00
 Spin= Alpha
 Occup=         1.0000000000e+00
  1         2.3591520311e-03
  2         1.0088678433e-01
  3         8.6167793428e-02
  4         1.9505590538e-01
  5         2.0525759477e-01
  6         0.0000000000e+00
  7         0.0000000000e+00
  8         1.7375160946e-01
  9         0.0000000000e+00
 10         0.0000000000e+00
 11         3.1886022751e-01
 12         0.0000000000e+00
 13         0.0000000000e+00
 14         3.9034665855e-01
 15         0.0000000000e+00
 16         0.0000000000e+00
 17         1.3476525570e-01
 18        -1.9736895973e-03
 19         0.0000000000e+00
 20         0.0000000000e+00
 21         1.0393323763e-03
 22         0.0000000000e+00
 23        -9.5256104484e-03
 24         0.0000000000e+00
 25         0.0000000000e+00
 26         5.1228769841e-03
 27         0.0000000000e+00
 28        -1.7116369498e-02
 29         0.0000000000e+00
 30         0.0000000000e+00
 31         5.3396558811e-04
 32         0.0000000000e+00
 33        -9.5487677358e-04
 34         0.0000000000e+00
 35         0.0000000000e+00
 36        -5.3970647198e-04
 37         0.0000000000e+00
 38         0.0000000000e+00
 39         0.0000000000e+00
 40        -1.2417660701e-03
 41         0.0000000000e+00
 42         0.0000000000e+00
 43        -1.1187051465e-03
 44         0.0000000000e+00
 45         0.0000000000e+00
 46         0.0000000000e+00
 47         3.3035307540e-04
 48         0.0000000000e+00
 49         0.0000000000e+00
 50         3.9481722021e-04
 51         0.0000000000e+00
 52         0.0000000000e+00
 53         0.0000000000e+00
 54         1.8386164904e-05
 55         0.0000000000e+00
 56        -2.8231517459e-02
 57        -7.6924388036e-02
 58        -1.2355522024e-01
 59        -6.0208724791e-03
 60         0.0000000000e+00
 61         4.4719766407e-03
 62         3.0411316956e-05
 63         0.0000000000e+00
 64         1.1172355705e-02
 65         1.6578469902e-03
 66         0.0000000000e+00
 67         2.9963752933e-02
 68         8.0643937838e-04
 69         1.0872066716e-03
 70         0.0000000000e+00
 71         6.2066225339e-04
 72         1.4550652858e-03
 73         0.0000000000e+00
 74         3.2276538601e-03
 75         0.0000000000e+00
 76         1.0321972581e-03
 77         3.5159393310e-03
 78         0.0000000000e+00
 79         5.3684323803e-04
 80         0.0000000000e+00
 81        -6.8917151442e-04
 82         4.4432870271e-04
 83         0.0000000000e+00
 84         0.0000000000e+00
 85        -6.4317192351e-04
 86        -2.8231517459e-02
 87        -7.6924388036e-02
 88        -1.2355522024e-01
 89        -6.0208724791e-03
 90         0.0000000000e+00
 91        -4.4719766407e-03
 92         3.0411316956e-05
 93         0.0000000000e+00
 94        -1.1172355705e-02
 95         1.6578469902e-03
 96         0.0000000000e+00
 97        -2.9963752933e-02
 98         8.0643937838e-04
 99         1.0872066716e-03
100         0.0000000000e+00
101        -6.2066225339e-04
102         1.4550652858e-03
103         0.0000000000e+00
104         3.2276538601e-03
105         0.0000000000e+00
106        -1.0321972581e-03
107         3.5159393310e-03
108         0.0000000000e+00
109         5.3684323803e-04
110         0.0000000000e+00
111         6.8917151442e-04
112         4.4432870271e-04
113         0.0000000000e+00
114         0.0000000000e+00
115         6.4317192351e-04
 Sym= B1
 Ene=        -6.8411799229e-01
 Spin= Alpha
 Occup=         1.0000000000e+00
  1         0.0000000000e+00
  2         0.0000000000e+00
  3         0.0000000000e+00
  4         0.0000000000e+00
  5         0.0000000000e+00
  6         1.9884518999e-01
  7         0.0000000000e+00
  8         0.0000000000e+00
  9         3.7006044999e-01
 10         0.0000000000e+00
 11         0.0000000000e+00
 12         4.6314626070e-01
 13         0.0000000000e+00
 14         0.0000000000e+00
 15         1.6346274413e-01
 16         0.0000000000e+00
 17         0.0000000000e+00
 18         0.0000000000e+00
 19        -2.1283588113e-03
 20         0.0000000000e+00
 21         0.0000000000e+00
 22         0.0000000000e+00
 23         0.0000000000e+00
 24        -9.3811217300e-03
 25         0.0000000000e+00
 26         0.0000000000e+00
 27         0.0000000000e+00
 28         0.0000000000e+00
 29        -1.8703599168e-02
 30         0.0000000000e+00
 31         0.0000000000e+00
 32         0.0000000000e+00
 33         0.0000000000e+00
 34        -1.8239374532e-03
 35         0.0000000000e+00
 36         0.0000000000e+00
 37         0.0000000000e+00
 38         1.5232044850e-03
 39         0.0000000000e+00
 40         0.0000000000e+00
 41        -3.3391175424e-03
 42         0.0000000000e+00
 43         0.0000000000e+00
 44         0.0000000000e+00
 45         1.7899612334e-03
 46         0.0000000000e+00
 47         0.0000000000e+00
 48         2.8795925420e-04
 49         0.0000000000e+00
 50         0.0000000000e+00
 51         0.0000000000e+00
 52         3.9083198618e-04
 53         0.0000000000e+00
 54         0.0000000000e+00
 55         0.0000000000e+00
 56         0.0000000000e+00
 57         0.0000000000e+00
 58         0.0000000000e+00
 59         0.0000000000e+00
 60         3.0612284160e-03
 61         0.0000000000e+00
 62         0.0000000000e+00
 63         1.0638928406e-02
 64         0.0000000000e+00
 65         0.0000000000e+00
 66         1.5353619165e-02
 67         0.0000000000e+00
 68         0.0000000000e+00
 69         0.0000000000e+00
 70         1.0395821434e-03
 71         0.0000000000e+00
 72         0.0000000000e+00
 73        -1.4658241242e-03
 74         0.0000000000e+00
 75         2.6485631433e-03
 76         0.0000000000e+00
 77         0.0000000000e+00
 78        -3.8566642667e-03
 79         0.0000000000e+00
 80         1.5961483320e-04
 81         0.0000000000e+00
 82         0.0000000000e+00
 83        -9.2122962704e-04
 84        -7.1553762947e-04
 85         0.0000000000e+00
 86         0.0000000000e+00
 87         0.0000000000e+00
 88         0.0000000000e+00
 89         0.0000000000e+00
 90         3.0612284160e-03
 91         0.0000000000e+00
 92         0.0000000000e+00
 93         1.0638928406e-02
 94         0.0000000000e+00
 95         0.0000000000e+00
 96         1.5353619165e-02
 97         0.0000000000e+00
 98         0.0000000000e+00
 99         0.0000000000e+00
100         1.0395821434e-03
101         0.0000000000e+00
102         0.0000000000e+00
103         1.4658241242e-03
104         0.0000000000e+00
105         2.6485631433e-03
106         0.0000000000e+00
107         0.0000000000e+00
108         3.8566642667e-03
109         0.0000000000e+00
110         1.5961483320e-04
111         0.0000000000e+00
112         0.0000000000e+00
113         9.2122962704e-04
114        -7.1553762947e-04
115         0.0000000000e+00
 Sym= A1
 Ene=        -1.6758018681e-01
 Spin= Alpha
 Occup=         0.0000000000e+00
  1         9.9580594334e-03
  2         1.2280201432e-01
  3         1.1930234604e-01
  4         1.1636933166e-01
  5         1.0828096619e+00
  6         0.0000000000e+00
  7         0.0000000000e+00
  8        -5.2652961890e-02
  9         0.0000000000e+00
 10         0.0000000000e+00
 11        -8.5153699047e-02
 12         0.0000000000e+00
 13         0.0000000000e+00
 14        -1.7845317130e-01
 15         0.0000000000e+00
 16         0.0000000000e+00
 17        -2.5243254861e-01
 18         6.0899464832e-04
 19         0.0000000000e+00
 20         0.0000000000e+00
 21         7.9617482337e-04
 22         0.0000000000e+00
 23         2.2621741294e-03
 24         0.0000000000e+00
 25         0.0000000000e+00
 26         7.1973280224e-03
 27         0.0000000000e+00
 28        -2.2419900546e-03
 29         0.0000000000e+00
 30         0.0000000000e+00
 31        -2.6904716881e-02
 32         0.0000000000e+00
 33        -9.7527547652e-04
 34         0.0000000000e+00
 35         0.0000000000e+00
 36        -1.8823540091e-03
 37         0.0000000000e+00
 38         0.0000000000e+00
 39         0.0000000000e+00
 40         6.5495149228e-03
 41         0.0000000000e+00
 42         0.0000000000e+00
 43         8.2898874441e-03
 44         0.0000000000e+00
 45         0.0000000000e+00
 46         0.0000000000e+00
 47        -5.1840501251e-04
 48         0.0000000000e+00
 49         0.0000000000e+00
 50        -4.8459886693e-04
 51         0.0000000000e+00
 52         0.0000000000e+00
 53         0.0000000000e+00
 54         5.1395536440e-04
 55         0.0000000000e+00
 56        -1.7362962593e-02
 57        -8.6740983385e-02
 58        -2.3917102048e-01
 59        -7.5451412657e-01
 60         0.0000000000e+00
 61        -1.5281019453e-03
 62         1.1558385235e-03
 63         0.0000000000e+00
 64        -1.3305665622e-02
 65         1.3548211763e-03
 66         0.0000000000e+00
 67         4.7436862167e-02
 68        -3.7938713709e-02
 69        -1.4662063528e-04
 70         0.0000000000e+00
 71        -8.5171183832e-04
 72        -8.3136572971e-04
 73         0.0000000000e+00
 74        -4.3312382857e-03
 75         0.0000000000e+00
 76         2.4149488794e-03
 77        -1.6834059257e-03
 78         0.0000000000e+00
 79        -7.7506712943e-04
 80         0.0000000000e+00
 81        -4.8797371171e-04
 82        -1.8985435099e-03
 83         0.0000000000e+00
 84         0.0000000000e+00
 85         1.2790207131e-03
 86        -1.7362962593e-02
 87        -8.6740983385e-02
 88        -2.3917102048e-01
 89        -7.5451412657e-01
 90         0.0000000000e+00
 91         1.5281019453e-03
 92         1.1558385235e-03
 93         0.0000000000e+00
 94         1.3305665622e-02
 95         1.3548211763e-03
 96         0.0000000000e+00
 97        -4.7436862167e-02
 98        -3.7938713709e-02
 99        -1.4662063528e-04
100         0.0000000000e+00
101         8.5171183832e-04
102        -8.3136572971e-04
103         0.0000000000e+00
104        -4.3312382857e-03
105         0.0000000000e+00
106        -2.4149488794e-03
107        -1.6834059257e-03
108         0.0000000000e+00
109        -7.7506712943e-04
110         0.0000000000e+00
111         4.8797371171e-04
112        -1.8985435099e-03
113         0.0000000000e+00
114         0.0000000000e+00
115        -1.2790207131e-03
 Sym= B2
 Ene=        -9.3971292149e-02
 Spin= Alpha
 Occup=         0.0000000000e+00
  1         0.0000000000e+00
  2         0.0000000000e+00
  3         0.0000000000e+00
  4         0.0000000000e+00
  5         0.0000000000e+00
  6         0.0000000000e+00
  7         8.2491417547e-02
  8         0.0000000000e+00
  9         0.0000000000e+00
 10         1.4773374856e-01
 11         0.0000000000e+00
 12         0.0000000000e+00
 13         2.8168112439e-01
 14         0.0000000000e+00
 15         0.0000000000e+00
 16         7.8838227258e-01
 17         0.0000000000e+00
 18         0.0000000000e+00
 19         0.0000000000e+00
 20         1.7307284479e-04
 21         0.0000000000e+00
 22         0.0000000000e+00
 23         0.0000000000e+00
 24         0.0000000000e+00
 25         7.9011034330e-03
 26         0.0000000000e+00
 27         0.0000000000e+00
 28         0.0000000000e+00
 29         0.0000000000e+00
 30        -7.2368133068e-02
 31         0.0000000000e+00
 32         0.0000000000e+00
 33         0.0000000000e+00
 34         0.0000000000e+00
 35        -1.1899617321e-03
 36         0.0000000000e+00
 37         0.0000000000e+00
 38         0.0000000000e+00
 39         6.1750632449e-04
 40         0.0000000000e+00
 41         0.0000000000e+00
 42         7.2449722472e-03
 43         0.0000000000e+00
 44         0.0000000000e+00
 45         0.0000000000e+00
 46        -2.4979768486e-03
 47         0.0000000000e+00
 48         0.0000000000e+00
 49        -6.2137611767e-04
 50         0.0000000000e+00
 51         0.0000000000e+00
 52         0.0000000000e+00
 53         5.8493270109e-04
 54         0.0000000000e+00
 55         0.0000000000e+00
 56        -1.5375140988e-02
 57        -7.7969823088e-02
 58        -4.0856485703e-01
 59        -1.4836576354e+00
 60         0.0000000000e+00
 61        -2.1772486543e-03
 62         1.9452593636e-03
 63         0.0000000000e+00
 64        -3.0513580007e-03
 65         1.0787535685e-02
 66         0.0000000000e+00
 67         1.2435930525e-01
 68        -7.9789482016e-02
 69         5.9473466829e-04
 70         0.0000000000e+00
 71        -1.6962816124e-03
 72        -1.0176395501e-03
 73         0.0000000000e+00
 74         7.3144722456e-03
 75         0.0000000000e+00
 76         1.2528635241e-02
 77         1.3894782673e-02
 78         0.0000000000e+00
 79         9.1327535920e-04
 80         0.0000000000e+00
 81        -1.5744714406e-03
 82         1.8236294802e-05
 83         0.0000000000e+00
 84         0.0000000000e+00
 85        -5.2263334371e-04
 86         1.5375140988e-02
 87         7.7969823088e-02
 88         4.0856485703e-01
 89         1.4836576354e+00
 90         0.0000000000e+00
 91        -2.1772486543e-03
 92        -1.9452593636e-03
 93         0.0000000000e+00
 94        -3.0513580007e-03
 95        -1.0787535685e-02
 96         0.0000000000e+00
 97         1.2435930525e-01
 98         7.9789482016e-02
 99        -5.9473466829e-04
100         0.0000000000e+00
101        -1.6962816124e-03
102         1.0176395501e-03
103         0.0000000000e+00
104        -7.3144722456e-03
105         0.0000000000e+00
106         1.2528635241e-02
107        -1.3894782673e-02
108         0.0000000000e+00
109        -9.1327535920e-04
110         0.0000000000e+00
111        -1.5744714406e-03
112        -1.8236294802e-05
113         0.0000000000e+00
114         0.0000000000e+00
115        -5.2263334371e-04
 Sym= B2
 Ene=         1.2078805298e-01
 Spin= Alpha
 Occup=         0.0000000000e+00
  1         0.0000000000e+00
  2         0.0000000000e+00
  3         0.0000000000e+00
  4         0.0000000000e+00
  5         0.0000000000e+00
  6         0.0000000000e+00
  7         5.2386402581e-02
  8         0.0000000000e+00
  9         0.0000000000e+00
 10         6.3625513188e-02
 11         0.0000000000e+00
 12         0.0000000000e+00
 13         6.6587048932e-01
 14         0.0000000000e+00
 15         0.0000000000e+00
 16         1.2672052943e+00
 17         0.0000000000e+00
 18         0.0000000000e+00
 19         0.0000000000e+00
 20         1.2357132482e-02
 21         0.0000000000e+00
 22         0.0000000000e+00
 23         0.0000000000e+00
 24         0.0000000000e+00
 25        -1.8678158899e-02
 26         0.0000000000e+00
 27         0.0000000000e+00
 28         0.0000000000e+00
 29         0.0000000000e+00
 30        -3.1162243161e-01
 31         0.0000000000e+00
 32         0.0000000000e+00
 33         0.0000000000e+00
 34         0.0000000000e+00
 35        -2.8581457913e-03
 36         0.0000000000e+00
 37         0.0000000000e+00
 38         0.0000000000e+00
 39         8.6462239913e-04
 40         0.0000000000e+00
 41         0.0000000000e+00
 42         4.0292019143e-02
 43         0.0000000000e+00
 44         0.0000000000e+00
 45         0.0000000000e+00
 46        -3.4473964348e-02
 47         0.0000000000e+00
 48         0.0000000000e+00
 49         1.4270760915e-03
 50         0.0000000000e+00
 51         0.0000000000e+00
 52         0.0000000000e+00
 53         6.7473376868e-03
 54         0.0000000000e+00
 55         0.0000000000e+00
 56        -4.1646035777e-02
 57        -1.8331607056e-01
 58        -2.0637645568e+00
 59         9.9570656646e-01
 60         0.0000000000e+00
 61        -2.0268350795e-02
 62         2.1010658207e-02
 63         0.0000000000e+00
 64         1.8741570877e-01
 65        -1.2642862974e-01
 66         0.0000000000e+00
 67         1.8479473500e-01
 68        -9.1427142113e-03
 69        -1.9808932635e-04
 70         0.0000000000e+00
 71         6.4856586511e-03
 72         6.8297837678e-03
 73         0.0000000000e+00
 74         1.8158621864e-02
 75         0.0000000000e+00
 76         6.9847462609e-02
 77         4.5775147263e-02
 78         0.0000000000e+00
 79         5.2143259578e-03
 80         0.0000000000e+00
 81         8.2286946223e-04
 82         7.6157921833e-03
 83         0.0000000000e+00
 84         0.0000000000e+00
 85        -4.4943066517e-03
 86         4.1646035777e-02
 87         1.8331607056e-01
 88         2.0637645568e+00
 89        -9.9570656646e-01
 90         0.0000000000e+00
 91        -2.0268350795e-02
 92        -2.1010658207e-02
 93         0.0000000000e+00
 94         1.8741570877e-01
 95         1.2642862974e-01
 96         0.0000000000e+00
 97         1.8479473500e-01
 98         9.1427142113e-03
 99         1.9808932635e-04
100         0.0000000000e+00
101         6.4856586511e-03
102        -6.8297837678e-03
103         0.0000000000e+00
104        -1.8158621864e-02
105         0.0000000000e+00
106         6.9847462609e-02
107        -4.5775147263e-02
108         0.0000000000e+00
109        -5.2143259578e-03
110         0.0000000000e+00
111         8.2286946223e-04
112        -7.6157921833e-03
113         0.0000000000e+00
114         0.0000000000e+00
115        -4.4943066517e-03
 Sym= A1
 Ene=         1.3396697177e-01
 Spin= Alpha
 Occup=         0.0000000000e+00
  1         1.4658165568e-02
  2        -5.6192987632e-02
  3         8.5123189589e-02
  4        -7.1636219856e-01
  5        -2.0019764784e+00
  6         0.0000000000e+00
  7         0.0000000000e+00
  8         2.6968531195e-02
  9         0.0000000000e+00
 10         0.0000000000e+00
 11         5.1108945256e-02
 12         0.0000000000e+00
 13         0.0000000000e+00
 14         4.2911367812e-01
 15         0.0000000000e+00
 16         0.0000000000e+00
 17         9.6341707051e-01
 18        -1.6989649060e-03
 19         0.0000000000e+00
 20         0.0000000000e+00
 21        -1.0052547000e-02
 22         0.0000000000e+00
 23        -8.3237733389e-03
 24         0.0000000000e+00
 25         0.0000000000e+00
 26         1.3743654878e-02
 27         0.0000000000e+00
 28         4.4888151352e-02
 29         0.0000000000e+00
 30         0.0000000000e+00
 31         2.1620812745e-01
 32         0.0000000000e+00
 33         4.6000191121e-04
 34         0.0000000000e+00
 35         0.0000000000e+00
 36        -5.7870112799e-04
 37         0.0000000000e+00
 38         0.0000000000e+00
 39         0.0000000000e+00
 40        -3.4709442815e-02
 41         0.0000000000e+00
 42         0.0000000000e+00
 43        -5.3456776500e-02
 44         0.0000000000e+00
 45         0.0000000000e+00
 46         0.0000000000e+00
 47         2.7730209178e-03
 48         0.0000000000e+00
 49         0.0000000000e+00
 50         3.3565287701e-03
 51         0.0000000000e+00
 52         0.0000000000e+00
 53         0.0000000000e+00
 54        -3.8516090849e-03
 55         0.0000000000e+00
 56         4.5550165217e-02
 57         1.2330372919e-01
 58         2.3204825970e+00
 59        -7.1980710542e-01
 60         0.0000000000e+00
 61         3.0718059705e-02
 62        -7.8413311237e-03
 63         0.0000000000e+00
 64        -1.8116470859e-01
 65         1.1112832709e-01
 66         0.0000000000e+00
 67        -8.2479867889e-02
 68         3.5185023276e-01
 69        -1.8551354122e-03
 70         0.0000000000e+00
 71        -7.2523126608e-03
 72        -4.3983492417e-03
 73         0.0000000000e+00
 74         3.0434874132e-02
 75         0.0000000000e+00
 76        -9.1881444804e-02
 77        -5.2174701384e-02
 78         0.0000000000e+00
 79        -4.5919359113e-03
 80         0.0000000000e+00
 81        -9.8999080485e-03
 82        -1.1645449735e-02
 83         0.0000000000e+00
 84         0.0000000000e+00
 85         5.2055032892e-03
 86         4.5550165217e-02
 87         1.2330372919e-01
 88         2.3204825970e+00
 89        -7.1980710542e-01
 90         0.0000000000e+00
 91        -3.0718059705e-02
 92        -7.8413311237e-03
 93         0.0000000000e+00
 94         1.8116470859e-01
 95         1.1112832709e-01
 96         0.0000000000e+00
 97         8.2479867889e-02
 98         3.5185023276e-01
 99        -1.8551354122e-03
100         0.0000000000e+00
101         7.2523126608e-03
102        -4.3983492417e-03
103         0.0000000000e+00
104         3.0434874132e-02
105         0.0000000000e+00
106         9.1881444804e-02
107        -5.2174701384e-02
108         0.0000000000e+00
109        -4.5919359113e-03
110         0.0000000000e+00
111         9.8999080485e-03
112        -1.1645449735e-02
113         0.0000000000e+00
114         0.0000000000e+00
115        -5.2055032892e-03
 Sym= A1
 Ene=         1.6706111502e-01
 Spin= Alpha
 Occup=         0.0000000000e+00
  1         2.0802039442e-02
  2         2.0091026874e-02
  3         1.5173743443e-01
  4        -5.6016134519e-01
  5        -6.0056827220e+00
  6         0.0000000000e+00
  7         0.0000000000e+00
  8        -1.0192809023e-01
  9         0.0000000000e+00
 10         0.0000000000e+00
 11        -2.0482020522e-01
 12         0.0000000000e+00
 13         0.0000000000e+00
 14         3.1497918213e-01
 15         0.0000000000e+00
 16         0.0000000000e+00
 17         2.7345770340e+00
 18        -3.0623385299e-03
 19         0.0000000000e+00
 20         0.0000000000e+00
 21         6.9427188375e-04
 22         0.0000000000e+00
 23         2.1385999729e-02
 24         0.0000000000e+00
 25         0.0000000000e+00
 26         3.3968661586e-03
 27         0.0000000000e+00
 28        -7.2633780242e-02
 29         0.0000000000e+00
 30         0.0000000000e+00
 31         4.9108845583e-01
 32         0.0000000000e+00
 33         5.9578696189e-04
 34         0.0000000000e+00
 35         0.0000000000e+00
 36         1.7481969785e-03
 37         0.0000000000e+00
 38         0.0000000000e+00
 39         0.0000000000e+00
 40        -3.5015589768e-02
 41         0.0000000000e+00
 42         0.0000000000e+00
 43        -7.8616664695e-02
 44         0.0000000000e+00
 45         0.0000000000e+00
 46         0.0000000000e+00
 47         4.3833801498e-03
 48         0.0000000000e+00
 49         0.0000000000e+00
 50         6.0804673218e-03
 51         0.0000000000e+00
 52         0.0000000000e+00
 53         0.0000000000e+00
 54        -4.5327743141e-03
 55         0.0000000000e+00
 56        -2.4997612200e-02
 57         4.6056725516e-02
 58         2.9461226424e+00
 59         6.1303788208e-01
 60         0.0000000000e+00
 61         5.3496949320e-03
 62         2.8080262761e-03
 63         0.0000000000e+00
 64        -1.4002796437e-01
 65         9.0226819770e-02
 66         0.0000000000e+00
 67        -1.2203227129e+00
 68         8.4242073071e-01
 69         1.0185628525e-03
 70         0.0000000000e+00
 71         1.4892680883e-04
 72        -8.7333321606e-04
 73         0.0000000000e+00
 74        -9.0125042471e-05
 75         0.0000000000e+00
 76        -1.4782759791e-01
 77        -1.0600641448e-01
 78         0.0000000000e+00
 79        -3.8169042102e-03
 80         0.0000000000e+00
 81        -5.8515113469e-03
 82        -1.2564395810e-02
 83         0.0000000000e+00
 84         0.0000000000e+00
 85         7.3639025608e-03
 86        -2.4997612200e-02
 87         4.6056725516e-02
 88         2.9461226424e+00
 89         6.1303788208e-01
 90         0.0000000000e+00
 91        -5.3496949320e-03
 92         2.8080262761e-03
 93         0.0000000000e+00
 94         1.4002796437e-01
 95         9.0226819770e-02
 96         0.0000000000e+00
 97         1.2203227129e+00
 98         8.4242073071e-01
 99         1.0185628525e-03
100         0.0000000000e+00
101        -1.4892680883e-04
102        -8.7333321606e-04
103         0.0000000000e+00
104        -9.0125042471e-05
105         0.0000000000e+00
106         1.4782759791e-01
107        -1.0600641448e-01
108         0.0000000000e+00
109        -3.8169042102e-03
110         0.0000000000e+00
111         5.8515113469e-03
112        -1.2564395810e-02
113         0.0000000000e+00
114         0.0000000000e+00
115        -7.3639025608e-03
 Sym= B1
 Ene=         2.3012311615e-01
 Spin= Alpha
 Occup=         0.0000000000e+00
  1         0.0000000000e+00
  2         0.0000000000e+00
  3         0.0000000000e+00
  4         0.0000000000e+00
  5         0.0000000000e+00
  6         1.1926000102e-01
  7         0.0000000000e+00
  8         0.0000000000e+00
  9         1.0686253487e-01
 10         0.0000000000e+00
 11         0.0000000000e+00
 12         6.8426600547e-01
 13         0.0000000000e+00
 14         0.0000000000e+00
 15        -1.1648127782e+00
 16         0.0000000000e+00
 17         0.0000000000e+00
 18         0.0000000000e+00
 19         3.1898734625e-03
 20         0.0000000000e+00
 21         0.0000000000e+00
 22         0.0000000000e+00
 23         0.0000000000e+00
 24        -1.5963430006e-02
 25         0.0000000000e+00
 26         0.0000000000e+00
 27         0.0000000000e+00
 28         0.0000000000e+00
 29         7.5282657463e-02
 30         0.0000000000e+00
 31         0.0000000000e+00
 32         0.0000000000e+00
 33         0.0000000000e+00
 34         4.6308165747e-04
 35         0.0000000000e+00
 36         0.0000000000e+00
 37         0.0000000000e+00
 38        -2.3533953639e-03
 39         0.0000000000e+00
 40         0.0000000000e+00
 41        -6.7051976657e-03
 42         0.0000000000e+00
 43         0.0000000000e+00
 44         0.0000000000e+00
 45         1.3950880425e-02
 46         0.0000000000e+00
 47         0.0000000000e+00
 48         2.5271311244e-04
 49         0.0000000000e+00
 50         0.0000000000e+00
 51         0.0000000000e+00
 52        -2.4496919599e-05
 53         0.0000000000e+00
 54         0.0000000000e+00
 55         0.0000000000e+00
 56         0.0000000000e+00
 57         0.0000000000e+00
 58         0.0000000000e+00
 59         0.0000000000e+00
 60        -1.4490483749e-02
 61         0.0000000000e+00
 62         0.0000000000e+00
 63         4.7043369134e-02
 64         0.0000000000e+00
 65         0.0000000000e+00
 66        -1.1045348873e-01
 67         0.0000000000e+00
 68         0.0000000000e+00
 69         0.0000000000e+00
 70        -3.3451473406e-03
 71         0.0000000000e+00
 72         0.0000000000e+00
 73         4.4891525850e-03
 74         0.0000000000e+00
 75         1.7000826245e-02
 76         0.0000000000e+00
 77         0.0000000000e+00
 78        -2.4692619158e-02
 79         0.0000000000e+00
 80        -1.6088961029e-03
 81         0.0000000000e+00
 82         0.0000000000e+00
 83         5.2085130701e-03
 84         2.9306259164e-03
 85         0.0000000000e+00
 86         0.0000000000e+00
 87         0.0000000000e+00
 88         0.0000000000e+00
 89         0.0000000000e+00
 90        -1.4490483749e-02
 91         0.0000000000e+00
 92         0.0000000000e+00
 93         4.7043369134e-02
 94         0.0000000000e+00
 95         0.0000000000e+00
 96        -1.1045348873e-01
 97         0.0000000000e+00
 98         0.0000000000e+00
 99         0.0000000000e+00
100        -3.3451473406e-03
101         0.0000000000e+00
102         0.0000000000e+00
103        -4.4891525850e-03
104         0.0000000000e+00
105         1.7000826245e-02
106         0.0000000000e+00
107         0.0000000000e+00
108         2.4692619158e-02
109         0.0000000000e+00
110        -1.6088961029e-03
111         0.0000000000e+00
112         0.0000000000e+00
113        -5.2085130701e-03
114         2.9306259164e-03
115         0.0000000000e+00
 Sym= A1
 Ene=         2.9516050967e-01
 Spin= Alpha
 Occup=         0.0000000000e+00
  1         5.9966971279e-03
  2        -5.1067243662e-02
  3         2.9592516859e-02
  4        -5.0672547443e-01
  5        -1.8766341522e+00
  6         0.0000000000e+00
  7         0.0000000000e+00
  8         2.4767351256e-02
  9         0.0000000000e+00
 10         0.0000000000e+00
 11         1.1478307722e-02
 12         0.0000000000e+00
 13         0.0000000000e+00
 14         5.2057571300e-01
 15         0.0000000000e+00
 16         0.0000000000e+00
 17         2.0094742845e+00
 18         3.8857994042e-03
 19         0.0000000000e+00
 20         0.0000000000e+00
 21        -1.5259134817e-03
 22         0.0000000000e+00
 23         3.5199040536e-02
 24         0.0000000000e+00
 25         0.0000000000e+00
 26         2.1904841244e-02
 27         0.0000000000e+00
 28        -3.9282274074e-01
 29         0.0000000000e+00
 30         0.0000000000e+00
 31        -1.1924216881e-01
 32         0.0000000000e+00
 33        -9.8679147944e-03
 34         0.0000000000e+00
 35         0.0000000000e+00
 36        -3.6821663990e-03
 37         0.0000000000e+00
 38         0.0000000000e+00
 39         0.0000000000e+00
 40         5.8609022966e-02
 41         0.0000000000e+00
 42         0.0000000000e+00
 43        -6.0336869428e-03
 44         0.0000000000e+00
 45         0.0000000000e+00
 46         0.0000000000e+00
 47         2.2612336863e-03
 48         0.0000000000e+00
 49         0.0000000000e+00
 50         9.6278638476e-03
 51         0.0000000000e+00
 52         0.0000000000e+00
 53         0.0000000000e+00
 54         4.0479262895e-03
 55         0.0000000000e+00
 56         1.3663846547e-02
 57        -7.7019444986e-02
 58         1.9112841454e+00
 59        -3.5905997985e-01
 60         0.0000000000e+00
 61         4.7237870420e-03
 62        -2.6708926470e-02
 63         0.0000000000e+00
 64        -5.4693101561e-02
 65         7.4465764561e-02
 66         0.0000000000e+00
 67        -9.2818984734e-01
 68        -6.7971255286e-01
 69         7.4909161871e-03
 70         0.0000000000e+00
 71        -4.7580416469e-03
 72         2.6913341739e-03
 73         0.0000000000e+00
 74        -1.2741992615e-01
 75         0.0000000000e+00
 76         1.6993921594e-02
 77        -1.3014271139e-01
 78         0.0000000000e+00
 79        -7.4456090305e-03
 80         0.0000000000e+00
 81         1.9282658407e-02
 82        -9.3672909941e-03
 83         0.0000000000e+00
 84         0.0000000000e+00
 85         1.7101065578e-02
 86         1.3663846547e-02
 87        -7.7019444986e-02
 88         1.9112841454e+00
 89        -3.5905997985e-01
 90         0.0000000000e+00
 91        -4.7237870420e-03
 92        -2.6708926470e-02
 93         0.0000000000e+00
 94         5.4693101561e-02
 95         7.4465764561e-02
 96         0.0000000000e+00
 97         9.2818984734e-01
 98        -6.7971255286e-01
 99         7.4909161871e-03
100         0.0000000000e+00
101         4.7580416469e-03
102         2.6913341739e-03
103         0.0000000000e+00
104        -1.2741992615e-01
105         0.0000000000e+00
106        -1.6993921594e-02
107        -1.3014271139e-01
108         0.0000000000e+00
109        -7.4456090305e-03
110         0.0000000000e+00
111        -1.9282658407e-02
112        -9.3672909941e-03
113         0.0000000000e+00
114         0.0000000000e+00
115        -1.7101065578e-02
 Sym= B2
 Ene=         2.9930057981e-01
 Spin= Alpha
 Occup=         0.0000000000e+00
  1         0.0000000000e+00
  2         0.0000000000e+00
  3         0.0000000000e+00
  4         0.0000000000e+00
  5         0.0000000000e+00
  6         0.0000000000e+00
  7         1.0197423042e-01
  8         0.0000000000e+00
  9         0.0000000000e+00
 10         2.5744311776e-01
 11         0.0000000000e+00
 12         0.0000000000e+00
 13        -6.7341136277e-01
 14         0.0000000000e+00
 15         0.0000000000e+00
 16        -3.8695498802e+00
 17         0.0000000000e+00
 18         0.0000000000e+00
 19         0.0000000000e+00
 20        -4.3813896007e-03
 21         0.0000000000e+00
 22         0.0000000000e+00
 23         0.0000000000e+00
 24         0.0000000000e+00
 25         1.5518266979e-02
 26         0.0000000000e+00
 27         0.0000000000e+00
 28         0.0000000000e+00
 29         0.0000000000e+00
 30         8.2720557608e-01
 31         0.0000000000e+00
 32         0.0000000000e+00
 33         0.0000000000e+00
 34         0.0000000000e+00
 35         4.7608744867e-03
 36         0.0000000000e+00
 37         0.0000000000e+00
 38         0.0000000000e+00
 39        -2.1936085185e-03
 40         0.0000000000e+00
 41         0.0000000000e+00
 42        -8.9805972148e-02
 43         0.0000000000e+00
 44         0.0000000000e+00
 45         0.0000000000e+00
 46         5.0203910017e-02
 47         0.0000000000e+00
 48         0.0000000000e+00
 49         1.7730075808e-03
 50         0.0000000000e+00
 51         0.0000000000e+00
 52         0.0000000000e+00
 53        -1.0443241786e-02
 54         0.0000000000e+00
 55         0.0000000000e+00
 56        -3.6802298147e-02
 57         1.5116792844e-01
 58         2.7123701926e+00
 59         1.9426423680e+00
 60         0.0000000000e+00
 61         3.9119357667e-03
 62        -3.4492760311e-03
 63         0.0000000000e+00
 64        -2.0801464110e-01
 65         1.1936297009e-01
 66         0.0000000000e+00
 67        -1.2639586534e+00
 68         8.5275545999e-01
 69        -4.6424169479e-04
 70         0.0000000000e+00
 71        -1.2612377899e-03
 72        -1.3959724409e-03
 73         0.0000000000e+00
 74        -3.7823677758e-02
 75         0.0000000000e+00
 76        -1.5078372473e-01
 77        -1.2798098186e-01
 78         0.0000000000e+00
 79        -8.0882155466e-03
 80         0.0000000000e+00
 81         4.2434961683e-03
 82        -7.4536298732e-03
 83         0.0000000000e+00
 84         0.0000000000e+00
 85         7.0023479450e-03
 86         3.6802298147e-02
 87        -1.5116792844e-01
 88        -2.7123701926e+00
 89        -1.9426423680e+00
 90         0.0000000000e+00
 91         3.9119357667e-03
 92         3.4492760311e-03
 93         0.0000000000e+00
 94        -2.0801464110e-01
 95        -1.1936297009e-01
 96         0.0000000000e+00
 97        -1.2639586534e+00
 98        -8.5275545999e-01
 99         4.6424169479e-04
100         0.0000000000e+00
101        -1.2612377899e-03
102         1.3959724409e-03
103         0.0000000000e+00
104         3.7823677758e-02
105         0.0000000000e+00
106        -1.5078372473e-01
107         1.2798098186e-01
108         0.0000000000e+00
109         8.0882155466e-03
110         0.0000000000e+00
111         4.2434961683e-03
112         7.4536298732e-03
113         0.0000000000e+00
114         0.0000000000e+00
115         7.0023479450e-03
 Sym= A2
 Ene=         3.1435808862e-01
 Spin= Alpha
 Occup=         0.0000000000e+00
  1         0.0000000000e+00
  2         0.0000000000e+00
  3         0.0000000000e+00
  4         0.0000000000e+00
  5         0.0000000000e+00
  6         0.0000000000e+00
  7         0.0000000000e+00
  8         0.0000000000e+00
  9         0.0000000000e+00
 10         0.0000000000e+00
 11         0.0000000000e+00
 12         0.0000000000e+00
 13         0.0000000000e+00
 14         0.0000000000e+00
 15         0.0000000000e+00
 16         0.0000000000e+00
 17         0.0000000000e+00
 18         0.0000000000e+00
 19         0.0000000000e+00
 20         0.0000000000e+00
 21         0.0000000000e+00
 22         6.6979454169e-03
 23         0.0000000000e+00
 24         0.0000000000e+00
 25         0.0000000000e+00
 26         0.0000000000e+00
 27         2.3831595174e-02
 28         0.0000000000e+00
 29         0.0000000000e+00
 30         0.0000000000e+00
 31         0.0000000000e+00
 32        -1.3955572884e-01
 33         0.0000000000e+00
 34         0.0000000000e+00
 35         0.0000000000e+00
 36         0.0000000000e+00
 37        -6.4812670307e-03
 38         0.0000000000e+00
 39         0.0000000000e+00
 40         0.0000000000e+00
 41         0.0000000000e+00
 42         0.0000000000e+00
 43         0.0000000000e+00
 44         4.9572488923e-02
 45         0.0000000000e+00
 46         0.0000000000e+00
 47         0.0000000000e+00
 48         0.0000000000e+00
 49         0.0000000000e+00
 50         0.0000000000e+00
 51        -1.5831968635e-03
 52         0.0000000000e+00
 53         0.0000000000e+00
 54         0.0000000000e+00
 55         3.5402482343e-03
 56         0.0000000000e+00
 57         0.0000000000e+00
 58         0.0000000000e+00
 59         0.0000000000e+00
 60         3.9165067917e-02
 61         0.0000000000e+00
 62         0.0000000000e+00
 63        -1.1739193146e-01
 64         0.0000000000e+00
 65         0.0000000000e+00
 66         9.8363989035e-01
 67         0.0000000000e+00
 68         0.0000000000e+00
 69         0.0000000000e+00
 70        -5.0879958254e-03
 71         0.0000000000e+00
 72         0.0000000000e+00
 73         2.0887361197e-03
 74         0.0000000000e+00
 75         6.7689218199e-02
 76         0.0000000000e+00
 77         0.0000000000e+00
 78        -6.1048079297e-02
 79         0.0000000000e+00
 80         3.0176348493e-03
 81         0.0000000000e+00
 82         0.0000000000e+00
 83        -1.3795671425e-02
 84        -1.1282586969e-02
 85         0.0000000000e+00
 86         0.0000000000e+00
 87         0.0000000000e+00
 88         0.0000000000e+00
 89         0.0000000000e+00
 90        -3.9165067917e-02
 91         0.0000000000e+00
 92         0.0000000000e+00
 93         1.1739193146e-01
 94         0.0000000000e+00
 95         0.0000000000e+00
 96        -9.8363989035e-01
 97         0.0000000000e+00
 98         0.0000000000e+00
 99         0.0000000000e+00
100         5.0879958254e-03
101         0.0000000000e+00
102         0.0000000000e+00
103         2.0887361197e-03
104         0.0000000000e+00
105        -6.7689218199e-02
106         0.0000000000e+00
107         0.0000000000e+00
108        -6.1048079297e-02
109         0.0000000000e+00
110        -3.0176348493e-03
111         0.0000000000e+00
112         0.0000000000e+00
113        -1.3795671425e-02
114         1.1282586969e-02
115         0.0000000000e+00
 Sym= B1
 Ene=         4.0393714585e-01
 Spin= Alpha
 Occup=         0.0000000000e+00
  1         0.0000000000e+00
  2         0.0000000000e+00
  3         0.0000000000e+00
  4         0.0000000000e+00
  5         0.0000000000e+00
  6         2.0917326903e-04
  7         0.0000000000e+00
  8         0.0000000000e+00
  9         1.3834754324e-03
 10         0.0000000000e+00
 11         0.0000000000e+00
 12        -1.0088587588e-01
 13         0.0000000000e+00
 14         0.0000000000e+00
 15        -1.5084684213e+00
 16         0.0000000000e+00
 17         0.0000000000e+00
 18         0.0000000000e+00
 19        -8.1793767371e-03
 20         0.0000000000e+00
 21         0.0000000000e+00
 22         0.0000000000e+00
 23         0.0000000000e+00
 24        -1.7764898612e-02
 25         0.0000000000e+00
 26         0.0000000000e+00
 27         0.0000000000e+00
 28         0.0000000000e+00
 29         8.3672304850e-02
 30         0.0000000000e+00
 31         0.0000000000e+00
 32         0.0000000000e+00
 33         0.0000000000e+00
 34         3.2211076111e-03
 35         0.0000000000e+00
 36         0.0000000000e+00
 37         0.0000000000e+00
 38        -6.3945024194e-03
 39         0.0000000000e+00
 40         0.0000000000e+00
 41        -1.9867867307e-02
 42         0.0000000000e+00
 43         0.0000000000e+00
 44         0.0000000000e+00
 45         4.9909799699e-02
 46         0.0000000000e+00
 47         0.0000000000e+00
 48         9.9587838850e-04
 49         0.0000000000e+00
 50         0.0000000000e+00
 51         0.0000000000e+00
 52        -4.2607456125e-03
 53         0.0000000000e+00
 54         0.0000000000e+00
 55         0.0000000000e+00
 56         0.0000000000e+00
 57         0.0000000000e+00
 58         0.0000000000e+00
 59         0.0000000000e+00
 60         3.9649570365e-02
 61         0.0000000000e+00
 62         0.0000000000e+00
 63        -1.4059907606e-01
 64         0.0000000000e+00
 65         0.0000000000e+00
 66         1.1997461289e+00
 67         0.0000000000e+00
 68         0.0000000000e+00
 69         0.0000000000e+00
 70         1.0340102236e-03
 71         0.0000000000e+00
 72         0.0000000000e+00
 73         1.1067086630e-02
 74         0.0000000000e+00
 75         2.5565652160e-02
 76         0.0000000000e+00
 77         0.0000000000e+00
 78        -1.1730770964e-01
 79         0.0000000000e+00
 80         2.1601971216e-03
 81         0.0000000000e+00
 82         0.0000000000e+00
 83        -1.2610158564e-02
 84        -1.3409128799e-02
 85         0.0000000000e+00
 86         0.0000000000e+00
 87         0.0000000000e+00
 88         0.0000000000e+00
 89         0.0000000000e+00
 90         3.9649570365e-02
 91         0.0000000000e+00
 92         0.0000000000e+00
 93        -1.4059907606e-01
 94         0.0000000000e+00
 95         0.0000000000e+00
 96         1.1997461289e+00
 97         0.0000000000e+00
 98         0.0000000000e+00
 99         0.0000000000e+00
100         1.0340102236e-03
101         0.0000000000e+00
102         0.0000000000e+00
103        -1.1067086630e-02
104         0.0000000000e+00
105         2.5565652160e-02
106         0.0000000000e+00
107         0.0000000000e+00
108         1.1730770964e-01
109         0.0000000000e+00
110         2.1601971216e-03
111         0.0000000000e+00
112         0.0000000000e+00
113         1.2610158564e-02
114        -1.3409128799e-02
115         0.0000000000e+00
 Sym= A1
 Ene=         4.9546788408e-01
 Spin= Alpha
 Occup=         0.0000000000e+00
  1         1.7270352807e-02
  2        -1.4956193279e-01
  3        -9.8686055026e-02
  4        -1.3579097281e+00
  5         8.2982332892e+00
  6         0.0000000000e+00
  7         0.0000000000e+00
  8        -3.4533976460e-02
  9         0.0000000000e+00
 10         0.0000000000e+00
 11         1.1060487084e-01
 12         0.0000000000e+00
 13         0.0000000000e+00
 14        -1.1267742960e+00
 15         0.0000000000e+00
 16         0.0000000000e+00
 17        -2.0124556822e+00
 18        -6.2654555557e-03
 19         0.0000000000e+00
 20         0.0000000000e+00
 21         1.5098089193e-02
 22         0.0000000000e+00
 23         9.8094514977e-03
 24         0.0000000000e+00
 25         0.0000000000e+00
 26        -4.0708204193e-02
 27         0.0000000000e+00
 28        -1.0652386269e-01
 29         0.0000000000e+00
 30         0.0000000000e+00
 31        -4.8600257106e-01
 32         0.0000000000e+00
 33        -6.7699441959e-03
 34         0.0000000000e+00
 35         0.0000000000e+00
 36        -1.2115159954e-02
 37         0.0000000000e+00
 38         0.0000000000e+00
 39         0.0000000000e+00
 40         9.4635705349e-02
 41         0.0000000000e+00
 42         0.0000000000e+00
 43         1.7068514445e-01
 44         0.0000000000e+00
 45         0.0000000000e+00
 46         0.0000000000e+00
 47        -1.0605106458e-02
 48         0.0000000000e+00
 49         0.0000000000e+00
 50        -1.3686934004e-02
 51         0.0000000000e+00
 52         0.0000000000e+00
 53         0.0000000000e+00
 54         9.3874020384e-03
 55         0.0000000000e+00
 56         2.5885736358e-02
 57        -2.4878784100e-01
 58        -3.3000982870e+00
 59        -6.3150653561e-01
 60         0.0000000000e+00
 61        -1.1137450299e-02
 62         1.8702849183e-02
 63         0.0000000000e+00
 64         2.7239513592e-01
 65        -2.5588637617e-01
 66         0.0000000000e+00
 67         1.0177573208e+00
 68        -4.6991931729e-01
 69         4.5195129941e-03
 70         0.0000000000e+00
 71         1.5755441330e-02
 72         7.3396089539e-03
 73         0.0000000000e+00
 74        -3.3306516516e-02
 75         0.0000000000e+00
 76         1.2047859951e-01
 77         1.0089392370e-01
 78         0.0000000000e+00
 79         5.0879308114e-03
 80         0.0000000000e+00
 81        -3.7188621950e-03
 82        -1.2702855675e-04
 83         0.0000000000e+00
 84         0.0000000000e+00
 85        -1.5947572523e-04
 86         2.5885736358e-02
 87        -2.4878784100e-01
 88        -3.3000982870e+00
 89        -6.3150653561e-01
 90         0.0000000000e+00
 91         1.1137450299e-02
 92         1.8702849183e-02
 93         0.0000000000e+00
 94        -2.7239513592e-01
 95        -2.5588637617e-01
 96         0.0000000000e+00
 97        -1.0177573208e+00
 98        -4.6991931729e-01
 99         4.5195129941e-03
100         0.0000000000e+00
101        -1.5755441330e-02
102         7.3396089539e-03
103         0.0000000000e+00
104        -3.3306516516e-02
105         0.0000000000e+00
106        -1.2047859951e-01
107         1.0089392370e-01
108         0.0000000000e+00
109         5.0879308114e-03
110         0.0000000000e+00
111         3.7188621950e-03
112        -1.2702855675e-04
113         0.0000000000e+00
114         0.0000000000e+00
115         1.5947572523e-04
 Sym= B2
 Ene=         5.9148206586e-01
 Spin= Alpha
 Occup=         0.0000000000e+00
  1         0.0000000000e+00
  2         0.0000000000e+00
  3         0.0000000000e+00
  4         0.0000000000e+00
  5         0.0000000000e+00
  6         0.0000000000e+00
  7         1.0315566069e-02
  8         0.0000000000e+00
  9         0.0000000000e+00
 10        -2.1500901544e-02
 11         0.0000000000e+00
 12         0.0000000000e+00
 13         3.7525139034e-01
 14         0.0000000000e+00
 15         0.0000000000e+00
 16         2.4605633771e+00
 17         0.0000000000e+00
 18         0.0000000000e+00
 19         0.0000000000e+00
 20         1.0293459842e-03
 21         0.0000000000e+00
 22         0.0000000000e+00
 23         0.0000000000e+00
 24         0.0000000000e+00
 25        -5.5814540242e-03
 26         0.0000000000e+00
 27         0.0000000000e+00
 28         0.0000000000e+00
 29         0.0000000000e+00
 30        -1.8250049126e-01
 31         0.0000000000e+00
 32         0.0000000000e+00
 33         0.0000000000e+00
 34         0.0000000000e+00
 35         4.4123412746e-03
 36         0.0000000000e+00
 37         0.0000000000e+00
 38         0.0000000000e+00
 39         4.7351114762e-03
 40         0.0000000000e+00
 41         0.0000000000e+00
 42        -2.4270543471e-02
 43         0.0000000000e+00
 44         0.0000000000e+00
 45         0.0000000000e+00
 46        -4.6355284283e-02
 47         0.0000000000e+00
 48         0.0000000000e+00
 49         4.0300209366e-03
 50         0.0000000000e+00
 51         0.0000000000e+00
 52         0.0000000000e+00
 53         5.0149818723e-03
 54         0.0000000000e+00
 55         0.0000000000e+00
 56         1.9150485153e-03
 57        -6.1460229097e-02
 58        -1.5109856150e+00
 59        -1.6528348664e-01
 60         0.0000000000e+00
 61        -3.6451700848e-02
 62        -3.5798956064e-02
 63         0.0000000000e+00
 64         2.0143237311e-01
 65         1.0092407887e-01
 66         0.0000000000e+00
 67        -6.8411874966e-01
 68        -1.3254999647e+00
 69         3.5166224772e-03
 70         0.0000000000e+00
 71         1.8601911634e-03
 72         7.8316614722e-03
 73         0.0000000000e+00
 74        -6.2629247780e-02
 75         0.0000000000e+00
 76         4.9691875300e-02
 77        -2.7712811923e-02
 78         0.0000000000e+00
 79        -6.3213150306e-03
 80         0.0000000000e+00
 81         1.8323630933e-02
 82         2.1413569788e-03
 83         0.0000000000e+00
 84         0.0000000000e+00
 85         9.1572817278e-03
 86        -1.9150485153e-03
 87         6.1460229097e-02
 88         1.5109856150e+00
 89         1.6528348664e-01
 90         0.0000000000e+00
 91        -3.6451700848e-02
 92         3.5798956064e-02
 93         0.0000000000e+00
 94         2.0143237311e-01
 95        -1.0092407887e-01
 96         0.0000000000e+00
 97        -6.8411874966e-01
 98         1.3254999647e+00
 99        -3.5166224772e-03
100         0.0000000000e+00
101         1.8601911634e-03
102        -7.8316614722e-03
103         0.0000000000e+00
104         6.2629247780e-02
105         0.0000000000e+00
106         4.9691875300e-02
107         2.7712811923e-02
108         0.0000000000e+00
109         6.3213150306e-03
110         0.0000000000e+00
111         1.8323630933e-02
112        -2.1413569788e-03
113         0.0000000000e+00
114         0.0000000000e+00
115         9.1572817278e-03
 Sym= A1
 Ene=         7.4099568460e-01
 Spin= Alpha
 Occup=         0.0000000000e+00
  1         2.4267544724e-02
  2        -3.0797134421e-02
  3         2.3379553191e-01
  4        -1.9785674020e+00
  5        -7.5620732425e+00
  6         0.0000000000e+00
  7         0.0000000000e+00
  8         8.9338848908e-02
  9         0.0000000000e+00
 10         0.0000000000e+00
 11         9.2562517056e-02
 12         0.0000000000e+00
 13         0.0000000000e+00
 14         1.5666318798e+00
 15         0.0000000000e+00
 16         0.0000000000e+00
 17         1.2980544860e+00
 18         3.6415582474e-03
 19         0.0000000000e+00
 20         0.0000000000e+00
 21        -1.7295210431e-02
 22         0.0000000000e+00
 23        -1.9961169279e-02
 24         0.0000000000e+00
 25         0.0000000000e+00
 26         6.9950658241e-02
 27         0.0000000000e+00
 28         1.1781218317e-01
 29         0.0000000000e+00
 30         0.0000000000e+00
 31         1.0007660435e-01
 32         0.0000000000e+00
 33        -7.2977914687e-03
 34         0.0000000000e+00
 35         0.0000000000e+00
 36        -1.6833139405e-02
 37         0.0000000000e+00
 38         0.0000000000e+00
 39         0.0000000000e+00
 40        -4.2423954044e-03
 41         0.0000000000e+00
 42         0.0000000000e+00
 43         1.8264311483e-02
 44         0.0000000000e+00
 45         0.0000000000e+00
 46         0.0000000000e+00
 47         1.5848311340e-03
 48         0.0000000000e+00
 49         0.0000000000e+00
 50         1.5834591699e-03
 51         0.0000000000e+00
 52         0.0000000000e+00
 53         0.0000000000e+00
 54         1.5074724477e-03
 55         0.0000000000e+00
 56         1.4035598272e-02
 57        -7.2258558169e-02
 58         3.9783716772e+00
 59         5.4622666712e-01
 60         0.0000000000e+00
 61        -2.7300437022e-03
 62        -9.8901174593e-04
 63         0.0000000000e+00
 64        -1.6073436425e-02
 65         1.9410677005e-02
 66         0.0000000000e+00
 67        -2.3032985660e+00
 68         1.7268581384e+00
 69        -7.6136458922e-03
 70         0.0000000000e+00
 71         1.4437848357e-02
 72         5.9728773484e-03
 73         0.0000000000e+00
 74         4.1099909978e-02
 75         0.0000000000e+00
 76        -2.9350203690e-01
 77        -1.8818323239e-01
 78         0.0000000000e+00
 79        -2.3806493644e-02
 80         0.0000000000e+00
 81        -1.3859306100e-02
 82        -4.1864355569e-02
 83         0.0000000000e+00
 84         0.0000000000e+00
 85         1.8718530601e-02
 86         1.4035598272e-02
 87        -7.2258558169e-02
 88         3.9783716772e+00
 89         5.4622666712e-01
 90         0.0000000000e+00
 91         2.7300437022e-03
 92        -9.8901174593e-04
 93         0.0000000000e+00
 94         1.6073436425e-02
 95         1.9410677005e-02
 96         0.0000000000e+00
 97         2.3032985660e+00
 98         1.7268581384e+00
 99        -7.6136458922e-03
100         0.0000000000e+00
101        -1.4437848357e-02
102         5.9728773484e-03
103         0.0000000000e+00
104         4.1099909978e-02
105         0.0000000000e+00
106         2.9350203690e-01
107        -1.8818323239e-01
108         0.0000000000e+00
109        -2.3806493644e-02
110         0.0000000000e+00
111         1.3859306100e-02
112        -4.1864355569e-02
113         0.0000000000e+00
114         0.0000000000e+00
115        -1.8718530601e-02
 Sym= B2
 Ene=         7.9828755459e-01
 Spin= Alpha
 Occup=         0.0000000000e+00
  1         0.0000000000e+00
  2         0.0000000000e+00
  3         0.0000000000e+00
  4         0.0000000000e+00
  5         0.0000000000e+00
  6         0.0000000000e+00
  7         9.1530435133e-02
  8         0.0000000000e+00
  9         0.0000000000e+00
 10         1.4542352171e-01
 11         0.0000000000e+00
 12         0.0000000000e+00
 13         1.4363198765e+00
 14         0.0000000000e+00
 15         0.0000000000e+00
 16         1.5361549246e+00
 17         0.0000000000e+00
 18         0.0000000000e+00
 19         0.0000000000e+00
 20         1.9559370339e-02
 21         0.0000000000e+00
 22         0.0000000000e+00
 23         0.0000000000e+00
 24         0.0000000000e+00
 25        -6.8957971947e-02
 26         0.0000000000e+00
 27         0.0000000000e+00
 28         0.0000000000e+00
 29         0.0000000000e+00
 30         3.2322616760e-01
 31         0.0000000000e+00
 32         0.0000000000e+00
 33         0.0000000000e+00
 34         0.0000000000e+00
 35         1.1439271991e-02
 36         0.0000000000e+00
 37         0.0000000000e+00
 38         0.0000000000e+00
 39        -8.5797948094e-03
 40         0.0000000000e+00
 41         0.0000000000e+00
 42        -8.8520598170e-02
 43         0.0000000000e+00
 44         0.0000000000e+00
 45         0.0000000000e+00
 46         2.9998515976e-02
 47         0.0000000000e+00
 48         0.0000000000e+00
 49         4.3150666703e-03
 50         0.0000000000e+00
 51         0.0000000000e+00
 52         0.0000000000e+00
 53        -5.9045068046e-03
 54         0.0000000000e+00
 55         0.0000000000e+00
 56        -4.1308610660e-02
 57         6.4770626185e-02
 58        -2.3340961568e+00
 59        -1.2290628796e+00
 60         0.0000000000e+00
 61         1.7764501781e-02
 62        -1.2510772155e-02
 63         0.0000000000e+00
 64        -1.5244315867e-01
 65         8.0045967680e-02
 66         0.0000000000e+00
 67         2.0508121278e+00
 68        -1.5230754404e+00
 69        -8.4994631472e-03
 70         0.0000000000e+00
 71        -1.3881631738e-02
 72        -1.7979660173e-02
 73         0.0000000000e+00
 74        -8.3505027564e-03
 75         0.0000000000e+00
 76         2.2828628398e-01
 77         1.5500975579e-01
 78         0.0000000000e+00
 79         9.1742193712e-03
 80         0.0000000000e+00
 81         2.6901361829e-02
 82         2.6959066048e-02
 83         0.0000000000e+00
 84         0.0000000000e+00
 85        -1.7441451815e-02
 86         4.1308610660e-02
 87        -6.4770626185e-02
 88         2.3340961568e+00
 89         1.2290628796e+00
 90         0.0000000000e+00
 91         1.7764501781e-02
 92         1.2510772155e-02
 93         0.0000000000e+00
 94        -1.5244315867e-01
 95        -8.0045967680e-02
 96         0.0000000000e+00
 97         2.0508121278e+00
 98         1.5230754404e+00
 99         8.4994631472e-03
100         0.0000000000e+00
101        -1.3881631738e-02
102         1.7979660173e-02
103         0.0000000000e+00
104         8.3505027564e-03
105         0.0000000000e+00
106         2.2828628398e-01
107        -1.5500975579e-01
108         0.0000000000e+00
109        -9.1742193712e-03
110         0.0000000000e+00
111         2.6901361829e-02
112        -2.6959066048e-02
113         0.0000000000e+00
114         0.0000000000e+00
115        -1.7441451815e-02
 Sym= B2
 Ene=         1.0213778138e+00
 Spin= Alpha
 Occup=         0.0000000000e+00
  1         0.0000000000e+00
  2         0.0000000000e+00
  3         0.0000000000e+00
  4         0.0000000000e+00
  5         0.0000000000e+00
  6         0.0000000000e+00
  7         4.5466720743e-02
  8         0.0000000000e+00
  9         0.0000000000e+00
 10        -1.2691318659e-01
 11         0.0000000000e+00
 12         0.0000000000e+00
 13         3.9937110225e+00
 14         0.0000000000e+00
 15         0.0000000000e+00
 16         4.1422738258e+00
 17         0.0000000000e+00
 18         0.0000000000e+00
 19         0.0000000000e+00
 20         2.6228663978e-02
 21         0.0000000000e+00
 22         0.0000000000e+00
 23         0.0000000000e+00
 24         0.0000000000e+00
 25        -3.3377840013e-01
 26         0.0000000000e+00
 27         0.0000000000e+00
 28         0.0000000000e+00
 29         0.0000000000e+00
 30        -2.1231554710e+00
 31         0.0000000000e+00
 32         0.0000000000e+00
 33         0.0000000000e+00
 34         0.0000000000e+00
 35         2.3798651040e-03
 36         0.0000000000e+00
 37         0.0000000000e+00
 38         0.0000000000e+00
 39        -7.4469916256e-03
 40         0.0000000000e+00
 41         0.0000000000e+00
 42         1.7815708915e-01
 43         0.0000000000e+00
 44         0.0000000000e+00
 45         0.0000000000e+00
 46        -1.6253297046e-01
 47         0.0000000000e+00
 48         0.0000000000e+00
 49         1.1245220368e-02
 50         0.0000000000e+00
 51         0.0000000000e+00
 52         0.0000000000e+00
 53         3.2032524596e-02
 54         0.0000000000e+00
 55         0.0000000000e+00
 56         7.8796285133e-02
 57         2.0698668357e-01
 58        -7.8102014877e+00
 59        -2.4762907580e-01
 60         0.0000000000e+00
 61        -8.1500734914e-02
 62         6.7859011042e-02
 63         0.0000000000e+00
 64         7.6848311041e-01
 65        -6.1834865866e-01
 66         0.0000000000e+00
 67         2.7851634137e+00
 68        -1.8614469908e+00
 69        -7.7563296429e-03
 70         0.0000000000e+00
 71         1.5481647894e-02
 72         1.1940192501e-02
 73         0.0000000000e+00
 74         5.7888571462e-02
 75         0.0000000000e+00
 76         5.7259123073e-01
 77         3.9597851605e-01
 78         0.0000000000e+00
 79         3.0391317638e-02
 80         0.0000000000e+00
 81         2.5440208709e-02
 82         5.7825363635e-02
 83         0.0000000000e+00
 84         0.0000000000e+00
 85        -3.7075919279e-02
 86        -7.8796285133e-02
 87        -2.0698668357e-01
 88         7.8102014877e+00
 89         2.4762907580e-01
 90         0.0000000000e+00
 91        -8.1500734914e-02
 92        -6.7859011042e-02
 93         0.0000000000e+00
 94         7.6848311041e-01
 95         6.1834865866e-01
 96         0.0000000000e+00
 97         2.7851634137e+00
 98         1.8614469908e+00
 99         7.7563296429e-03
100         0.0000000000e+00
101         1.5481647894e-02
102        -1.1940192501e-02
103         0.0000000000e+00
104        -5.7888571462e-02
105         0.0000000000e+00
106         5.7259123073e-01
107        -3.9597851605e-01
108         0.0000000000e+00
109        -3.0391317638e-02
110         0.0000000000e+00
111         2.5440208709e-02
112        -5.7825363635e-02
113         0.0000000000e+00
114         0.0000000000e+00
115        -3.7075919279e-02
 Sym= A1
 Ene=         1.0398395135e+00
 Spin= Alpha
 Occup=         0.0000000000e+00
  1         9.0021933626e-02
  2         1.4099032679e-01
  3         7.5444082901e-01
  4        -2.8592640537e+00
  5        -9.1621049140e+00
  6         0.0000000000e+00
  7         0.0000000000e+00
  8         1.0194057377e-02
  9         0.0000000000e+00
 10         0.0000000000e+00
 11        -4.2569049559e-02
 12         0.0000000000e+00
 13         0.0000000000e+00
 14         2.0730869019e+00
 15         0.0000000000e+00
 16         0.0000000000e+00
 17         2.1645624454e+00
 18         1.0910992922e-02
 19         0.0000000000e+00
 20         0.0000000000e+00
 21        -7.3382683468e-03
 22         0.0000000000e+00
 23        -1.4821474218e-02
 24         0.0000000000e+00
 25         0.0000000000e+00
 26         2.0410668505e-01
 27         0.0000000000e+00
 28         5.5706670143e-01
 29         0.0000000000e+00
 30         0.0000000000e+00
 31         1.6356151348e+00
 32         0.0000000000e+00
 33        -3.0753712141e-03
 34         0.0000000000e+00
 35         0.0000000000e+00
 36        -1.1681850152e-02
 37         0.0000000000e+00
 38         0.0000000000e+00
 39         0.0000000000e+00
 40        -1.8057439758e-01
 41         0.0000000000e+00
 42         0.0000000000e+00
 43        -2.7906574494e-01
 44         0.0000000000e+00
 45         0.0000000000e+00
 46         0.0000000000e+00
 47         1.4953199992e-02
 48         0.0000000000e+00
 49         0.0000000000e+00
 50         1.5084553644e-02
 51         0.0000000000e+00
 52         0.0000000000e+00
 53         0.0000000000e+00
 54        -1.9200849348e-02
 55         0.0000000000e+00
 56        -8.2808862584e-02
 57        -4.0756518991e-01
 58         6.7824787157e+00
 59        -2.6806636580e-01
 60         0.0000000000e+00
 61         7.9652249438e-02
 62        -5.2419955690e-02
 63         0.0000000000e+00
 64        -7.5316564051e-01
 65         4.9528079796e-01
 66         0.0000000000e+00
 67        -1.6455139036e+00
 68         1.6924005666e+00
 69        -8.7890997521e-03
 70         0.0000000000e+00
 71        -2.3325964002e-02
 72        -1.7627817385e-02
 73         0.0000000000e+00
 74         1.2797750070e-01
 75         0.0000000000e+00
 76        -4.8612823878e-01
 77        -2.6606483207e-01
 78         0.0000000000e+00
 79        -2.6585650472e-02
 80         0.0000000000e+00
 81        -4.3244167047e-02
 82        -5.7990476628e-02
 83         0.0000000000e+00
 84         0.0000000000e+00
 85         2.1984882554e-02
 86        -8.2808862584e-02
 87        -4.0756518991e-01
 88         6.7824787157e+00
 89        -2.6806636580e-01
 90         0.0000000000e+00
 91        -7.9652249438e-02
 92        -5.2419955690e-02
 93         0.0000000000e+00
 94         7.5316564051e-01
 95         4.9528079796e-01
 96         0.0000000000e+00
 97         1.6455139036e+00
 98         1.6924005666e+00
 99        -8.7890997521e-03
100         0.0000000000e+00
101         2.3325964002e-02
102        -1.7627817385e-02
103         0.0000000000e+00
104         1.2797750070e-01
105         0.0000000000e+00
106         4.8612823878e-01
107        -2.6606483207e-01
108         0.0000000000e+00
109        -2.6585650472e-02
110         0.0000000000e+00
111         4.3244167047e-02
112        -5.7990476628e-02
113         0.0000000000e+00
114         0.0000000000e+00
115        -2.1984882554e-02
 Sym= B1
 Ene=         1.0642725930e+00
 Spin= Alpha
 Occup=         0.0000000000e+00
  1         0.0000000000e+00
  2         0.0000000000e+00
  3         0.0000000000e+00
  4         0.0000000000e+00
  5         0.0000000000e+00
  6         3.9573983577e-03
  7         0.0000000000e+00
  8         0.0000000000e+00
  9        -5.7140658055e-02
 10         0.0000000000e+00
 11         0.0000000000e+00
 12         3.6191448746e-01
 13         0.0000000000e+00
 14         0.0000000000e+00
 15         1.0570734182e+00
 16         0.0000000000e+00
 17         0.0000000000e+00
 18         0.0000000000e+00
 19        -4.4104911494e-02
 20         0.0000000000e+00
 21         0.0000000000e+00
 22         0.0000000000e+00
 23         0.0000000000e+00
 24         7.6432429451e-02
 25         0.0000000000e+00
 26         0.0000000000e+00
 27         0.0000000000e+00
 28         0.0000000000e+00
 29        -1.3925528210e+00
 30         0.0000000000e+00
 31         0.0000000000e+00
 32         0.0000000000e+00
 33         0.0000000000e+00
 34        -2.5801450906e-03
 35         0.0000000000e+00
 36         0.0000000000e+00
 37         0.0000000000e+00
 38         7.7881622338e-03
 39         0.0000000000e+00
 40         0.0000000000e+00
 41         4.4464608516e-02
 42         0.0000000000e+00
 43         0.0000000000e+00
 44         0.0000000000e+00
 45        -1.0186875572e-01
 46         0.0000000000e+00
 47         0.0000000000e+00
 48         4.2557825512e-03
 49         0.0000000000e+00
 50         0.0000000000e+00
 51         0.0000000000e+00
 52         2.4639123847e-02
 53         0.0000000000e+00
 54         0.0000000000e+00
 55         0.0000000000e+00
 56         0.0000000000e+00
 57         0.0000000000e+00
 58         0.0000000000e+00
 59         0.0000000000e+00
 60         1.7156131503e-03
 61         0.0000000000e+00
 62         0.0000000000e+00
 63        -1.9740934909e-02
 64         0.0000000000e+00
 65         0.0000000000e+00
 66        -9.9275371684e-01
 67         0.0000000000e+00
 68         0.0000000000e+00
 69         0.0000000000e+00
 70         1.4834937010e-02
 71         0.0000000000e+00
 72         0.0000000000e+00
 73         1.0045046171e-02
 74         0.0000000000e+00
 75        -1.9420467953e-01
 76         0.0000000000e+00
 77         0.0000000000e+00
 78         7.6624158278e-02
 79         0.0000000000e+00
 80        -2.9711234354e-03
 81         0.0000000000e+00
 82         0.0000000000e+00
 83         2.7664231420e-02
 84         3.2743657454e-02
 85         0.0000000000e+00
 86         0.0000000000e+00
 87         0.0000000000e+00
 88         0.0000000000e+00
 89         0.0000000000e+00
 90         1.7156131503e-03
 91         0.0000000000e+00
 92         0.0000000000e+00
 93        -1.9740934909e-02
 94         0.0000000000e+00
 95         0.0000000000e+00
 96        -9.9275371684e-01
 97         0.0000000000e+00
 98         0.0000000000e+00
 99         0.0000000000e+00
100         1.4834937010e-02
101         0.0000000000e+00
102         0.0000000000e+00
103        -1.0045046171e-02
104         0.0000000000e+00
105        -1.9420467953e-01
106         0.0000000000e+00
107         0.0000000000e+00
108        -7.6624158278e-02
109         0.0000000000e+00
110        -2.9711234354e-03
111         0.0000000000e+00
112         0.0000000000e+00
113        -2.7664231420e-02
114         3.2743657454e-02
115         0.0000000000e+00
 Sym= A2
 Ene=         1.0976047172e+00
 Spin= Alpha
 Occup=         0.0000000000e+00
  1         0.0000000000e+00
  2         0.0000000000e+00
  3         0.0000000000e+00
  4         0.0000000000e+00
  5         0.0000000000e+00
  6         0.0000000000e+00
  7         0.0000000000e+00
  8         0.0000000000e+00
  9         0.0000000000e+00
 10         0.0000000000e+00
 11         0.0000000000e+00
 12         0.0000000000e+00
 13         0.0000000000e+00
 14         0.0000000000e+00
 15         0.0000000000e+00
 16         0.0000000000e+00
 17         0.0000000000e+00
 18         0.0000000000e+00
 19         0.0000000000e+00
 20         0.0000000000e+00
 21         0.0000000000e+00
 22         3.9973688733e-02
 23         0.0000000000e+00
 24         0.0000000000e+00
 25         0.0000000000e+00
 26         0.0000000000e+00
 27        -5.2453653686e-02
 28         0.0000000000e+00
 29         0.0000000000e+00
 30         0.0000000000e+00
 31         0.0000000000e+00
 32         1.7284072358e+00
 33         0.0000000000e+00
 34         0.0000000000e+00
 35         0.0000000000e+00
 36         0.0000000000e+00
 37         1.4491562567e-02
 38         0.0000000000e+00
 39         0.0000000000e+00
 40         0.0000000000e+00
 41         0.0000000000e+00
 42         0.0000000000e+00
 43         0.0000000000e+00
 44        -2.0240963198e-01
 45         0.0000000000e+00
 46         0.0000000000e+00
 47         0.0000000000e+00
 48         0.0000000000e+00
 49         0.0000000000e+00
 50         0.0000000000e+00
 51         1.8025425358e-02
 52         0.0000000000e+00
 53         0.0000000000e+00
 54         0.0000000000e+00
 55        -2.4622360539e-02
 56         0.0000000000e+00
 57         0.0000000000e+00
 58         0.0000000000e+00
 59         0.0000000000e+00
 60         7.7072484127e-03
 61         0.0000000000e+00
 62         0.0000000000e+00
 63        -4.8835690093e-02
 64         0.0000000000e+00
 65         0.0000000000e+00
 66        -9.6792938000e-01
 67         0.0000000000e+00
 68         0.0000000000e+00
 69         0.0000000000e+00
 70        -7.0880857284e-03
 71         0.0000000000e+00
 72         0.0000000000e+00
 73        -5.5686134799e-03
 74         0.0000000000e+00
 75        -1.0801947701e-01
 76         0.0000000000e+00
 77         0.0000000000e+00
 78         2.5139524679e-01
 79         0.0000000000e+00
 80        -1.1853217140e-02
 81         0.0000000000e+00
 82         0.0000000000e+00
 83         4.8720931763e-02
 84         3.2706764994e-02
 85         0.0000000000e+00
 86         0.0000000000e+00
 87         0.0000000000e+00
 88         0.0000000000e+00
 89         0.0000000000e+00
 90        -7.7072484127e-03
 91         0.0000000000e+00
 92         0.0000000000e+00
 93         4.8835690093e-02
 94         0.0000000000e+00
 95         0.0000000000e+00
 96         9.6792938000e-01
 97         0.0000000000e+00
 98         0.0000000000e+00
 99         0.0000000000e+00
100         7.0880857284e-03
101         0.0000000000e+00
102         0.0000000000e+00
103        -5.5686134799e-03
104         0.0000000000e+00
105         1.0801947701e-01
106         0.0000000000e+00
107         0.0000000000e+00
108         2.5139524679e-01
109         0.0000000000e+00
110         1.1853217140e-02
111         0.0000000000e+00
112         0.0000000000e+00
113         4.8720931763e-02
114        -3.2706764994e-02
115         0.0000000000e+00
 Sym= A1
 Ene=         1.2157395835e+00
 Spin= Alpha
 Occup=         0.0000000000e+00
  1         2.6333342947e-02
  2         6.3707057362e-02
  3         2.4662897067e-01
  4        -5.0931912023e-01
  5        -7.6931250182e+00
  6         0.0000000000e+00
  7         0.0000000000e+00
  8         4.4416474559e-02
  9         0.0000000000e+00
 10         0.0000000000e+00
 11        -4.5923646238e-02
 12         0.0000000000e+00
 13         0.0000000000e+00
 14         1.5587010567e+00
 15         0.0000000000e+00
 16         0.0000000000e+00
 17         3.1591248882e+00
 18        -4.1996287295e-02
 19         0.0000000000e+00
 20         0.0000000000e+00
 21         6.3300575639e-03
 22         0.0000000000e+00
 23         4.6987364914e-02
 24         0.0000000000e+00
 25         0.0000000000e+00
 26         2.9561423140e-02
 27         0.0000000000e+00
 28        -1.7891686802e+00
 29         0.0000000000e+00
 30         0.0000000000e+00
 31         5.2798624726e-01
 32         0.0000000000e+00
 33        -1.0108314371e-02
 34         0.0000000000e+00
 35         0.0000000000e+00
 36        -1.5629861067e-03
 37         0.0000000000e+00
 38         0.0000000000e+00
 39         0.0000000000e+00
 40         5.8358701104e-02
 41         0.0000000000e+00
 42         0.0000000000e+00
 43        -1.1153671653e-01
 44         0.0000000000e+00
 45         0.0000000000e+00
 46         0.0000000000e+00
 47         1.4191594676e-02
 48         0.0000000000e+00
 49         0.0000000000e+00
 50         3.0002472822e-02
 51         0.0000000000e+00
 52         0.0000000000e+00
 53         0.0000000000e+00
 54         1.6763706344e-03
 55         0.0000000000e+00
 56        -2.4349556621e-02
 57        -2.0313353620e-02
 58         4.5911975755e+00
 59         6.6903918143e-02
 60         0.0000000000e+00
 61         3.4956910780e-02
 62        -1.3191969831e-02
 63         0.0000000000e+00
 64        -3.0015132426e-01
 65         1.8200912606e-01
 66         0.0000000000e+00
 67        -1.8946861405e+00
 68         1.3815248834e-02
 69         8.0450202478e-03
 70         0.0000000000e+00
 71        -9.0300844267e-03
 72        -3.7917177105e-03
 73         0.0000000000e+00
 74        -2.0799160891e-01
 75         0.0000000000e+00
 76        -1.0395319098e-01
 77        -2.6361576171e-01
 78         0.0000000000e+00
 79        -1.3109736895e-02
 80         0.0000000000e+00
 81         3.4599687869e-02
 82        -1.4635686482e-02
 83         0.0000000000e+00
 84         0.0000000000e+00
 85         3.8695061697e-02
 86        -2.4349556621e-02
 87        -2.0313353620e-02
 88         4.5911975755e+00
 89         6.6903918143e-02
 90         0.0000000000e+00
 91        -3.4956910780e-02
 92        -1.3191969831e-02
 93         0.0000000000e+00
 94         3.0015132426e-01
 95         1.8200912606e-01
 96         0.0000000000e+00
 97         1.8946861405e+00
 98         1.3815248834e-02
 99         8.0450202478e-03
100         0.0000000000e+00
101         9.0300844267e-03
102        -3.7917177105e-03
103         0.0000000000e+00
104        -2.0799160891e-01
105         0.0000000000e+00
106         1.0395319098e-01
107        -2.6361576171e-01
108         0.0000000000e+00
109        -1.3109736895e-02
110         0.0000000000e+00
111        -3.4599687869e-02
112        -1.4635686482e-02
113         0.0000000000e+00
114         0.0000000000e+00
115        -3.8695061697e-02
 Sym= A1
 Ene=         1.2935963564e+00
 Spin= Alpha
 Occup=         0.0000000000e+00
  1         1.0330925197e-02
  2        -2.1466767585e-02
  3        -3.3644270676e-02
  4         4.7180474984e-01
  5        -5.3280300597e+00
  6         0.0000000000e+00
  7         0.0000000000e+00
  8         9.6740567595e-02
  9         0.0000000000e+00
 10         0.0000000000e+00
 11         1.9027472163e-01
 12         0.0000000000e+00
 13         0.0000000000e+00
 14         1.3484135034e-01
 15         0.0000000000e+00
 16         0.0000000000e+00
 17         1.1053339770e+00
 18        -8.6938710997e-04
 19         0.0000000000e+00
 20         0.0000000000e+00
 21         3.3328750881e-02
 22         0.0000000000e+00
 23         1.8135070270e-02
 24         0.0000000000e+00
 25         0.0000000000e+00
 26        -1.1689691934e-01
 27         0.0000000000e+00
 28         7.9381028283e-01
 29         0.0000000000e+00
 30         0.0000000000e+00
 31         1.6652741513e+00
 32         0.0000000000e+00
 33         2.1838431996e-02
 34         0.0000000000e+00
 35         0.0000000000e+00
 36         2.4689588429e-02
 37         0.0000000000e+00
 38         0.0000000000e+00
 39         0.0000000000e+00
 40        -1.7107748777e-01
 41         0.0000000000e+00
 42         0.0000000000e+00
 43        -1.2892776346e-01
 44         0.0000000000e+00
 45         0.0000000000e+00
 46         0.0000000000e+00
 47         5.8715679609e-03
 48         0.0000000000e+00
 49         0.0000000000e+00
 50        -8.5506138236e-03
 51         0.0000000000e+00
 52         0.0000000000e+00
 53         0.0000000000e+00
 54        -1.7360991195e-02
 55         0.0000000000e+00
 56         1.7308758427e-02
 57         1.0258726338e+00
 58         1.6730470192e+00
 59         5.1505147272e-01
 60         0.0000000000e+00
 61        -5.1527288332e-02
 62         7.8304130507e-03
 63         0.0000000000e+00
 64         9.9128167871e-02
 65         7.1767491094e-02
 66         0.0000000000e+00
 67        -6.2716829568e-01
 68         1.0306807744e+00
 69         7.9905677528e-03
 70         0.0000000000e+00
 71         8.9451027537e-03
 72        -1.9145176763e-02
 73         0.0000000000e+00
 74         1.3280813399e-01
 75         0.0000000000e+00
 76        -1.7952280824e-01
 77         2.6020312702e-01
 78         0.0000000000e+00
 79         1.8530251365e-02
 80         0.0000000000e+00
 81        -3.2546127002e-02
 82         1.8835803614e-02
 83         0.0000000000e+00
 84         0.0000000000e+00
 85        -3.3268893647e-02
 86         1.7308758427e-02
 87         1.0258726338e+00
 88         1.6730470192e+00
 89         5.1505147272e-01
 90         0.0000000000e+00
 91         5.1527288332e-02
 92         7.8304130507e-03
 93         0.0000000000e+00
 94        -9.9128167871e-02
 95         7.1767491094e-02
 96         0.0000000000e+00
 97         6.2716829568e-01
 98         1.0306807744e+00
 99         7.9905677528e-03
100         0.0000000000e+00
101        -8.9451027537e-03
102        -1.9145176763e-02
103         0.0000000000e+00
104         1.3280813399e-01
105         0.0000000000e+00
106         1.7952280824e-01
107         2.6020312702e-01
108         0.0000000000e+00
109         1.8530251365e-02
110         0.0000000000e+00
111         3.2546127002e-02
112         1.8835803614e-02
113         0.0000000000e+00
114         0.0000000000e+00
115         3.3268893647e-02
 Sym= B2
 Ene=         1.5021034534e+00
 Spin= Alpha
 Occup=         0.0000000000e+00
  1         0.0000000000e+00
  2         0.0000000000e+00
  3         0.0000000000e+00
  4         0.0000000000e+00
  5         0.0000000000e+00
  6         0.0000000000e+00
  7         1.2782244446e-01
  8         0.0000000000e+00
  9         0.0000000000e+00
 10         1.3335518181e-01
 11         0.0000000000e+00
 12         0.0000000000e+00
 13         1.5645122655e-01
 14         0.0000000000e+00
 15         0.0000000000e+00
 16         1.7851079659e+00
 17         0.0000000000e+00
 18         0.0000000000e+00
 19         0.0000000000e+00
 20        -4.3589066151e-02
 21         0.0000000000e+00
 22         0.0000000000e+00
 23         0.0000000000e+00
 24         0.0000000000e+00
 25         2.1058281475e-01
 26         0.0000000000e+00
 27         0.0000000000e+00
 28         0.0000000000e+00
 29         0.0000000000e+00
 30        -1.8015079973e+00
 31         0.0000000000e+00
 32         0.0000000000e+00
 33         0.0000000000e+00
 34         0.0000000000e+00
 35        -2.2850814247e-02
 36         0.0000000000e+00
 37         0.0000000000e+00
 38         0.0000000000e+00
 39         1.3170692548e-02
 40         0.0000000000e+00
 41         0.0000000000e+00
 42         1.7811427161e-01
 43         0.0000000000e+00
 44         0.0000000000e+00
 45         0.0000000000e+00
 46        -5.1500318427e-04
 47         0.0000000000e+00
 48         0.0000000000e+00
 49        -1.4533831393e-02
 50         0.0000000000e+00
 51         0.0000000000e+00
 52         0.0000000000e+00
 53         1.6081226624e-02
 54         0.0000000000e+00
 55         0.0000000000e+00
 56        -4.9752321442e-03
 57        -1.3368156796e+00
 58        -4.7941106027e-01
 59        -8.8918993683e-01
 60         0.0000000000e+00
 61         3.0395083997e-02
 62        -2.8080277834e-02
 63         0.0000000000e+00
 64         1.9751145418e-02
 65         5.3768171698e-02
 66         0.0000000000e+00
 67         4.8184409189e-01
 68        -1.4497705075e-01
 69         2.5261909103e-02
 70         0.0000000000e+00
 71         1.1463825507e-02
 72        -1.0878970634e-02
 73         0.0000000000e+00
 74        -1.9188462993e-02
 75         0.0000000000e+00
 76        -2.3421837981e-01
 77         1.0790225009e-01
 78         0.0000000000e+00
 79        -6.4403524607e-03
 80         0.0000000000e+00
 81        -5.1460986023e-02
 82        -3.7225914896e-02
 83         0.0000000000e+00
 84         0.0000000000e+00
 85         1.9393623812e-02
 86         4.9752321442e-03
 87         1.3368156796e+00
 88         4.7941106027e-01
 89         8.8918993683e-01
 90         0.0000000000e+00
 91         3.0395083997e-02
 92         2.8080277834e-02
 93         0.0000000000e+00
 94         1.9751145418e-02
 95        -5.3768171698e-02
 96         0.0000000000e+00
 97         4.8184409189e-01
 98         1.4497705075e-01
 99        -2.5261909103e-02
100         0.0000000000e+00
101         1.1463825507e-02
102         1.0878970634e-02
103         0.0000000000e+00
104         1.9188462993e-02
105         0.0000000000e+00
106        -2.3421837981e-01
107        -1.0790225009e-01
108         0.0000000000e+00
109         6.4403524607e-03
110         0.0000000000e+00
111        -5.1460986023e-02
112         3.7225914896e-02
113         0.0000000000e+00
114         0.0000000000e+00
115         1.9393623812e-02
 Sym= B1
 Ene=         1.7212450618e+00
 Spin= Alpha
 Occup=         0.0000000000e+00
  1         0.0000000000e+00
  2         0.0000000000e+00
  3         0.0000000000e+00
  4         0.0000000000e+00
  5         0.0000000000e+00
  6         1.3888247267e-02
  7         0.0000000000e+00
  8         0.0000000000e+00
  9         8.5358952689e-02
 10         0.0000000000e+00
 11         0.0000000000e+00
 12        -2.5664939525e-01
 13         0.0000000000e+00
 14         0.0000000000e+00
 15        -3.9536432209e-01
 16         0.0000000000e+00
 17         0.0000000000e+00
 18         0.0000000000e+00
 19         1.2590395416e-02
 20         0.0000000000e+00
 21         0.0000000000e+00
 22         0.0000000000e+00
 23         0.0000000000e+00
 24         8.7968774561e-04
 25         0.0000000000e+00
 26         0.0000000000e+00
 27         0.0000000000e+00
 28         0.0000000000e+00
 29         7.9325166762e-01
 30         0.0000000000e+00
 31         0.0000000000e+00
 32         0.0000000000e+00
 33         0.0000000000e+00
 34         7.7236964275e-04
 35         0.0000000000e+00
 36         0.0000000000e+00
 37         0.0000000000e+00
 38         1.2772057313e-03
 39         0.0000000000e+00
 40         0.0000000000e+00
 41         3.2999688369e-03
 42         0.0000000000e+00
 43         0.0000000000e+00
 44         0.0000000000e+00
 45         5.1719986603e-02
 46         0.0000000000e+00
 47         0.0000000000e+00
 48         8.2333457924e-03
 49         0.0000000000e+00
 50         0.0000000000e+00
 51         0.0000000000e+00
 52        -7.8569118920e-03
 53         0.0000000000e+00
 54         0.0000000000e+00
 55         0.0000000000e+00
 56         0.0000000000e+00
 57         0.0000000000e+00
 58         0.0000000000e+00
 59         0.0000000000e+00
 60         2.4289770985e-02
 61         0.0000000000e+00
 62         0.0000000000e+00
 63        -2.1927765550e-01
 64         0.0000000000e+00
 65         0.0000000000e+00
 66         4.9423021639e-01
 67         0.0000000000e+00
 68         0.0000000000e+00
 69         0.0000000000e+00
 70         7.3790851292e-02
 71         0.0000000000e+00
 72         0.0000000000e+00
 73         6.1855412617e-02
 74         0.0000000000e+00
 75        -5.2650922421e-01
 76         0.0000000000e+00
 77         0.0000000000e+00
 78        -5.3722843205e-01
 79         0.0000000000e+00
 80         6.1505375498e-04
 81         0.0000000000e+00
 82         0.0000000000e+00
 83        -7.2726754387e-03
 84        -3.1334635955e-02
 85         0.0000000000e+00
 86         0.0000000000e+00
 87         0.0000000000e+00
 88         0.0000000000e+00
 89         0.0000000000e+00
 90         2.4289770985e-02
 91         0.0000000000e+00
 92         0.0000000000e+00
 93        -2.1927765550e-01
 94         0.0000000000e+00
 95         0.0000000000e+00
 96         4.9423021639e-01
 97         0.0000000000e+00
 98         0.0000000000e+00
 99         0.0000000000e+00
100         7.3790851292e-02
101         0.0000000000e+00
102         0.0000000000e+00
103        -6.1855412617e-02
104         0.0000000000e+00
105        -5.2650922421e-01
106         0.0000000000e+00
107         0.0000000000e+00
108         5.3722843205e-01
109         0.0000000000e+00
110         6.1505375498e-04
111         0.0000000000e+00
112         0.0000000000e+00
113         7.2726754387e-03
114        -3.1334635955e-02
115         0.0000000000e+00
 Sym= A1
 Ene=         1.8199781823e+00
 Spin= Alpha
 Occup=         0.0000000000e+00
  1         1.6534296637e-02
  2         3.7804902107e-02
  3         1.8524715810e-01
  4        -7.8540594392e-01
  5        -1.8918017884e+00
  6         0.0000000000e+00
  7         0.0000000000e+00
  8        -4.3331610976e-02
  9         0.0000000000e+00
 10         0.0000000000e+00
 11        -5.1854910465e-02
 12         0.0000000000e+00
 13         0.0000000000e+00
 14         6.8658434558e-02
 15         0.0000000000e+00
 16         0.0000000000e+00
 17         3.9692770916e-01
 18        -1.7447971754e-03
 19         0.0000000000e+00
 20         0.0000000000e+00
 21        -2.6501880029e-02
 22         0.0000000000e+00
 23        -2.7863750546e-02
 24         0.0000000000e+00
 25         0.0000000000e+00
 26         1.1193862211e-01
 27         0.0000000000e+00
 28         8.3412123364e-01
 29         0.0000000000e+00
 30         0.0000000000e+00
 31        -1.4342614720e-01
 32         0.0000000000e+00
 33         5.4036765433e-03
 34         0.0000000000e+00
 35         0.0000000000e+00
 36        -1.4558400660e-03
 37         0.0000000000e+00
 38         0.0000000000e+00
 39         0.0000000000e+00
 40        -9.7369622100e-02
 41         0.0000000000e+00
 42         0.0000000000e+00
 43        -9.8467838294e-02
 44         0.0000000000e+00
 45         0.0000000000e+00
 46         0.0000000000e+00
 47         8.4830420152e-03
 48         0.0000000000e+00
 49         0.0000000000e+00
 50        -1.1938591667e-02
 51         0.0000000000e+00
 52         0.0000000000e+00
 53         0.0000000000e+00
 54         1.2750687933e-03
 55         0.0000000000e+00
 56        -6.1166343675e-03
 57        -3.8912609737e-01
 58         1.5794014480e+00
 59        -5.8008229768e-02
 60         0.0000000000e+00
 61        -2.4146732630e-02
 62        -4.8996702440e-02
 63         0.0000000000e+00
 64         6.3390201390e-02
 65         3.5330567866e-01
 66         0.0000000000e+00
 67        -4.7268859847e-01
 68         4.1854493225e-01
 69         2.7011830381e-02
 70         0.0000000000e+00
 71         4.1795270944e-02
 72        -7.8608716259e-02
 73         0.0000000000e+00
 74        -7.8936841491e-02
 75         0.0000000000e+00
 76        -5.9273121727e-01
 77         6.2899597255e-01
 78         0.0000000000e+00
 79        -1.9641729666e-02
 80         0.0000000000e+00
 81        -3.4117306044e-02
 82        -3.8188537712e-02
 83         0.0000000000e+00
 84         0.0000000000e+00
 85        -1.5548065128e-02
 86        -6.1166343675e-03
 87        -3.8912609737e-01
 88         1.5794014480e+00
 89        -5.8008229768e-02
 90         0.0000000000e+00
 91         2.4146732630e-02
 92        -4.8996702440e-02
 93         0.0000000000e+00
 94        -6.3390201390e-02
 95         3.5330567866e-01
 96         0.0000000000e+00
 97         4.7268859847e-01
 98         4.1854493225e-01
 99         2.7011830381e-02
100         0.0000000000e+00
101        -4.1795270944e-02
102        -7.8608716259e-02
103         0.0000000000e+00
104        -7.8936841491e-02
105         0.0000000000e+00
106         5.9273121727e-01
107         6.2899597255e-01
108         0.0000000000e+00
109        -1.9641729666e-02
110         0.0000000000e+00
111         3.4117306044e-02
112        -3.8188537712e-02
113         0.0000000000e+00
114         0.0000000000e+00
115         1.5548065128e-02
 Sym= A2
 Ene=         1.8756849339e+00
 Spin= Alpha
 Occup=         0.0000000000e+00
  1         0.0000000000e+00
  2         0.0000000000e+00
  3         0.0000000000e+00
  4         0.0000000000e+00
  5         0.0000000000e+00
  6         0.0000000000e+00
  7         0.0000000000e+00
  8         0.0000000000e+00
  9         0.0000000000e+00
 10         0.0000000000e+00
 11         0.0000000000e+00
 12         0.0000000000e+00
 13         0.0000000000e+00
 14         0.0000000000e+00
 15         0.0000000000e+00
 16         0.0000000000e+00
 17         0.0000000000e+00
 18         0.0000000000e+00
 19         0.0000000000e+00
 20         0.0000000000e+00
 21         0.0000000000e+00
 22         5.5978295254e-03
 23         0.0000000000e+00
 24         0.0000000000e+00
 25         0.0000000000e+00
 26         0.0000000000e+00
 27        -1.0156766243e-01
 28         0.0000000000e+00
 29         0.0000000000e+00
 30         0.0000000000e+00
 31         0.0000000000e+00
 32        -2.3864295277e-01
 33         0.0000000000e+00
 34         0.0000000000e+00
 35         0.0000000000e+00
 36         0.0000000000e+00
 37        -5.1490693677e-03
 38         0.0000000000e+00
 39         0.0000000000e+00
 40         0.0000000000e+00
 41         0.0000000000e+00
 42         0.0000000000e+00
 43         0.0000000000e+00
 44         1.2815029701e-01
 45         0.0000000000e+00
 46         0.0000000000e+00
 47         0.0000000000e+00
 48         0.0000000000e+00
 49         0.0000000000e+00
 50         0.0000000000e+00
 51         9.5869813736e-03
 52         0.0000000000e+00
 53         0.0000000000e+00
 54         0.0000000000e+00
 55         3.5763955697e-03
 56         0.0000000000e+00
 57         0.0000000000e+00
 58         0.0000000000e+00
 59         0.0000000000e+00
 60         9.3092879887e-02
 61         0.0000000000e+00
 62         0.0000000000e+00
 63        -7.2508428154e-01
 64         0.0000000000e+00
 65         0.0000000000e+00
 66         6.1897540547e-01
 67         0.0000000000e+00
 68         0.0000000000e+00
 69         0.0000000000e+00
 70        -6.3793945665e-02
 71         0.0000000000e+00
 72         0.0000000000e+00
 73        -2.6830671833e-02
 74         0.0000000000e+00
 75         5.3736075143e-01
 76         0.0000000000e+00
 77         0.0000000000e+00
 78         1.9074984034e-01
 79         0.0000000000e+00
 80         3.4403042840e-03
 81         0.0000000000e+00
 82         0.0000000000e+00
 83        -1.3710723902e-02
 84        -2.5814453978e-02
 85         0.0000000000e+00
 86         0.0000000000e+00
 87         0.0000000000e+00
 88         0.0000000000e+00
 89         0.0000000000e+00
 90        -9.3092879887e-02
 91         0.0000000000e+00
 92         0.0000000000e+00
 93         7.2508428154e-01
 94         0.0000000000e+00
 95         0.0000000000e+00
 96        -6.1897540547e-01
 97         0.0000000000e+00
 98         0.0000000000e+00
 99         0.0000000000e+00
100         6.3793945665e-02
101         0.0000000000e+00
102         0.0000000000e+00
103        -2.6830671833e-02
104         0.0000000000e+00
105        -5.3736075143e-01
106         0.0000000000e+00
107         0.0000000000e+00
108         1.9074984034e-01
109         0.0000000000e+00
110        -3.4403042840e-03
111         0.0000000000e+00
112         0.0000000000e+00
113        -1.3710723902e-02
114         2.5814453978e-02
115         0.0000000000e+00
 Sym= B2
 Ene=         1.9659541798e+00
 Spin= Alpha
 Occup=         0.0000000000e+00
  1         0.0000000000e+00
  2         0.0000000000e+00
  3         0.0000000000e+00
  4         0.0000000000e+00
  5         0.0000000000e+00
  6         0.0000000000e+00
  7         2.3614964703e-02
  8         0.0000000000e+00
  9         0.0000000000e+00
 10         1.8626351011e-01
 11         0.0000000000e+00
 12         0.0000000000e+00
 13        -8.5151793500e-01
 14         0.0000000000e+00
 15         0.0000000000e+00
 16        -3.4413468987e-01
 17         0.0000000000e+00
 18         0.0000000000e+00
 19         0.0000000000e+00
 20        -1.1296501968e-02
 21         0.0000000000e+00
 22         0.0000000000e+00
 23         0.0000000000e+00
 24         0.0000000000e+00
 25         4.0228395525e-02
 26         0.0000000000e+00
 27         0.0000000000e+00
 28         0.0000000000e+00
 29         0.0000000000e+00
 30        -7.1243503496e-01
 31         0.0000000000e+00
 32         0.0000000000e+00
 33         0.0000000000e+00
 34         0.0000000000e+00
 35        -2.1306831343e-02
 36         0.0000000000e+00
 37         0.0000000000e+00
 38         0.0000000000e+00
 39        -3.6938826059e-03
 40         0.0000000000e+00
 41         0.0000000000e+00
 42         3.2346667929e-01
 43         0.0000000000e+00
 44         0.0000000000e+00
 45         0.0000000000e+00
 46         1.3640456919e-01
 47         0.0000000000e+00
 48         0.0000000000e+00
 49        -3.5649988138e-02
 50         0.0000000000e+00
 51         0.0000000000e+00
 52         0.0000000000e+00
 53        -1.9931210026e-02
 54         0.0000000000e+00
 55         0.0000000000e+00
 56        -9.3367210321e-03
 57        -5.0267976814e-01
 58         8.4737965613e-01
 59        -1.5447324909e-01
 60         0.0000000000e+00
 61         2.6026795419e-02
 62         5.5716386284e-04
 63         0.0000000000e+00
 64        -2.4701681255e-01
 65        -3.7077696417e-02
 66         0.0000000000e+00
 67         2.0939449994e-01
 68         6.2166319620e-01
 69        -6.8036368391e-02
 70         0.0000000000e+00
 71        -5.0404060519e-02
 72         2.3053691567e-02
 73         0.0000000000e+00
 74         8.8575507918e-01
 75         0.0000000000e+00
 76         1.9807950570e-01
 77        -1.1400890450e-01
 78         0.0000000000e+00
 79         2.7079384034e-02
 80         0.0000000000e+00
 81        -7.6687740282e-02
 82        -1.8348168693e-02
 83         0.0000000000e+00
 84         0.0000000000e+00
 85        -2.2777933565e-02
 86         9.3367210321e-03
 87         5.0267976814e-01
 88        -8.4737965613e-01
 89         1.5447324909e-01
 90         0.0000000000e+00
 91         2.6026795419e-02
 92        -5.5716386284e-04
 93         0.0000000000e+00
 94        -2.4701681255e-01
 95         3.7077696417e-02
 96         0.0000000000e+00
 97         2.0939449994e-01
 98        -6.2166319620e-01
 99         6.8036368391e-02
100         0.0000000000e+00
101        -5.0404060519e-02
102        -2.3053691567e-02
103         0.0000000000e+00
104        -8.8575507918e-01
105         0.0000000000e+00
106         1.9807950570e-01
107         1.1400890450e-01
108         0.0000000000e+00
109        -2.7079384034e-02
110         0.0000000000e+00
111        -7.6687740282e-02
112         1.8348168693e-02
113         0.0000000000e+00
114         0.0000000000e+00
115        -2.2777933565e-02
 Sym= B1
 Ene=         2.0159410040e+00
 Spin= Alpha
 Occup=         0.0000000000e+00
  1         0.0000000000e+00
  2         0.0000000000e+00
  3         0.0000000000e+00
  4         0.0000000000e+00
  5         0.0000000000e+00
  6         1.3597315120e-01
  7         0.0000000000e+00
  8         0.0000000000e+00
  9         6.9800126633e-01
 10         0.0000000000e+00
 11         0.0000000000e+00
 12        -9.9828876322e-01
 13         0.0000000000e+00
 14         0.0000000000e+00
 15         7.5644231589e-02
 16         0.0000000000e+00
 17         0.0000000000e+00
 18         0.0000000000e+00
 19        -1.8505617317e-02
 20         0.0000000000e+00
 21         0.0000000000e+00
 22         0.0000000000e+00
 23         0.0000000000e+00
 24         1.1608809937e-01
 25         0.0000000000e+00
 26         0.0000000000e+00
 27         0.0000000000e+00
 28         0.0000000000e+00
 29        -2.8157515035e-01
 30         0.0000000000e+00
 31         0.0000000000e+00
 32         0.0000000000e+00
 33         0.0000000000e+00
 34         2.9933824253e-03
 35         0.0000000000e+00
 36         0.0000000000e+00
 37         0.0000000000e+00
 38        -1.1726287912e-03
 39         0.0000000000e+00
 40         0.0000000000e+00
 41        -6.6754163926e-02
 42         0.0000000000e+00
 43         0.0000000000e+00
 44         0.0000000000e+00
 45         8.9922092654e-02
 46         0.0000000000e+00
 47         0.0000000000e+00
 48        -2.3411927181e-03
 49         0.0000000000e+00
 50         0.0000000000e+00
 51         0.0000000000e+00
 52        -4.1892345336e-03
 53         0.0000000000e+00
 54         0.0000000000e+00
 55         0.0000000000e+00
 56         0.0000000000e+00
 57         0.0000000000e+00
 58         0.0000000000e+00
 59         0.0000000000e+00
 60         1.0356414136e-01
 61         0.0000000000e+00
 62         0.0000000000e+00
 63        -8.2305220862e-01
 64         0.0000000000e+00
 65         0.0000000000e+00
 66         5.9703276509e-01
 67         0.0000000000e+00
 68         0.0000000000e+00
 69         0.0000000000e+00
 70        -1.5725401329e-02
 71         0.0000000000e+00
 72         0.0000000000e+00
 73        -2.0876490835e-02
 74         0.0000000000e+00
 75         2.1105271629e-01
 76         0.0000000000e+00
 77         0.0000000000e+00
 78         7.6972019301e-02
 79         0.0000000000e+00
 80         1.1032928705e-02
 81         0.0000000000e+00
 82         0.0000000000e+00
 83        -4.5164817886e-02
 84        -2.5875783526e-02
 85         0.0000000000e+00
 86         0.0000000000e+00
 87         0.0000000000e+00
 88         0.0000000000e+00
 89         0.0000000000e+00
 90         1.0356414136e-01
 91         0.0000000000e+00
 92         0.0000000000e+00
 93        -8.2305220862e-01
 94         0.0000000000e+00
 95         0.0000000000e+00
 96         5.9703276509e-01
 97         0.0000000000e+00
 98         0.0000000000e+00
 99         0.0000000000e+00
100        -1.5725401329e-02
101         0.0000000000e+00
102         0.0000000000e+00
103         2.0876490835e-02
104         0.0000000000e+00
105         2.1105271629e-01
106         0.0000000000e+00
107         0.0000000000e+00
108        -7.6972019301e-02
109         0.0000000000e+00
110         1.1032928705e-02
111         0.0000000000e+00
112         0.0000000000e+00
113         4.5164817886e-02
114        -2.5875783526e-02
115         0.0000000000e+00
 Sym= A1
 Ene=         2.0951398033e+00
 Spin= Alpha
 Occup=         0.0000000000e+00
  1         3.7188432222e-03
  2         1.9573007569e-02
  3         1.2468197884e-01
  4        -1.0231626541e+00
  5        -1.7246409988e-01
  6         0.0000000000e+00
  7         0.0000000000e+00
  8        -2.8905282894e-02
  9         0.0000000000e+00
 10         0.0000000000e+00
 11         9.7464450849e-02
 12         0.0000000000e+00
 13         0.0000000000e+00
 14        -5.3439768673e-01
 15         0.0000000000e+00
 16         0.0000000000e+00
 17        -5.6873421423e-01
 18        -2.6325805558e-02
 19         0.0000000000e+00
 20         0.0000000000e+00
 21        -1.9031115070e-02
 22         0.0000000000e+00
 23         1.1624680647e-01
 24         0.0000000000e+00
 25         0.0000000000e+00
 26         1.2086496906e-01
 27         0.0000000000e+00
 28         5.9970695163e-01
 29         0.0000000000e+00
 30         0.0000000000e+00
 31         2.3825327998e-01
 32         0.0000000000e+00
 33         1.3326792258e-02
 34         0.0000000000e+00
 35         0.0000000000e+00
 36        -9.3200518302e-03
 37         0.0000000000e+00
 38         0.0000000000e+00
 39         0.0000000000e+00
 40        -2.1405618939e-01
 41         0.0000000000e+00
 42         0.0000000000e+00
 43         2.8861418069e-02
 44         0.0000000000e+00
 45         0.0000000000e+00
 46         0.0000000000e+00
 47        -9.5101149791e-03
 48         0.0000000000e+00
 49         0.0000000000e+00
 50        -2.4723820894e-02
 51         0.0000000000e+00
 52         0.0000000000e+00
 53         0.0000000000e+00
 54        -6.5361242885e-03
 55         0.0000000000e+00
 56         3.2682169024e-03
 57        -5.4148087251e-02
 58         2.5757894822e-01
 59         6.8340663364e-02
 60         0.0000000000e+00
 61         3.4625795932e-02
 62         5.7568823257e-02
 63         0.0000000000e+00
 64        -2.6919512653e-01
 65        -5.5846663576e-01
 66         0.0000000000e+00
 67         1.4529044518e-01
 68         1.0588304514e+00
 69        -6.5969683293e-02
 70         0.0000000000e+00
 71         3.8223281694e-02
 72        -9.0298358351e-03
 73         0.0000000000e+00
 74         7.4506472724e-01
 75         0.0000000000e+00
 76        -5.1509594064e-01
 77         1.6874971872e-01
 78         0.0000000000e+00
 79        -3.9076337346e-03
 80         0.0000000000e+00
 81        -6.0484915273e-02
 82        -2.4590730661e-02
 83         0.0000000000e+00
 84         0.0000000000e+00
 85        -1.4544132054e-02
 86         3.2682169024e-03
 87        -5.4148087251e-02
 88         2.5757894822e-01
 89         6.8340663364e-02
 90         0.0000000000e+00
 91        -3.4625795932e-02
 92         5.7568823257e-02
 93         0.0000000000e+00
 94         2.6919512653e-01
 95        -5.5846663576e-01
 96         0.0000000000e+00
 97        -1.4529044518e-01
 98         1.0588304514e+00
 99        -6.5969683293e-02
100         0.0000000000e+00
101        -3.8223281694e-02
102        -9.0298358351e-03
103         0.0000000000e+00
104         7.4506472724e-01
105         0.0000000000e+00
106         5.1509594064e-01
107         1.6874971872e-01
108         0.0000000000e+00
109        -3.9076337346e-03
110         0.0000000000e+00
111         6.0484915273e-02
112        -2.4590730661e-02
113         0.0000000000e+00
114         0.0000000000e+00
115         1.4544132054e-02
 Sym= B2
 Ene=         2.1493970022e+00
 Spin= Alpha
 Occup=         0.0000000000e+00
  1         0.0000000000e+00
  2         0.0000000000e+00
  3         0.0000000000e+00
  4         0.0000000000e+00
  5         0.0000000000e+00
  6         0.0000000000e+00
  7         3.7407072152e-02
  8         0.0000000000e+00
  9         0.0000000000e+00
 10        -4.5255337123e-02
 11         0.0000000000e+00
 12         0.0000000000e+00
 13         1.5210739595e-01
 14         0.0000000000e+00
 15         0.0000000000e+00
 16         1.4730650097e+00
 17         0.0000000000e+00
 18         0.0000000000e+00
 19         0.0000000000e+00
 20        -1.2690703921e-02
 21         0.0000000000e+00
 22         0.0000000000e+00
 23         0.0000000000e+00
 24         0.0000000000e+00
 25         1.3742225760e-01
 26         0.0000000000e+00
 27         0.0000000000e+00
 28         0.0000000000e+00
 29         0.0000000000e+00
 30        -1.1162224393e+00
 31         0.0000000000e+00
 32         0.0000000000e+00
 33         0.0000000000e+00
 34         0.0000000000e+00
 35        -1.1666815499e-02
 36         0.0000000000e+00
 37         0.0000000000e+00
 38         0.0000000000e+00
 39         9.5556812820e-03
 40         0.0000000000e+00
 41         0.0000000000e+00
 42        -9.9113334102e-03
 43         0.0000000000e+00
 44         0.0000000000e+00
 45         0.0000000000e+00
 46        -1.1964907722e-01
 47         0.0000000000e+00
 48         0.0000000000e+00
 49        -2.0746259525e-03
 50         0.0000000000e+00
 51         0.0000000000e+00
 52         0.0000000000e+00
 53         1.3467105991e-02
 54         0.0000000000e+00
 55         0.0000000000e+00
 56         1.8651461312e-02
 57        -5.8133843342e-01
 58        -5.4563957933e-01
 59        -1.0824558145e-02
 60         0.0000000000e+00
 61        -7.8965014806e-02
 62        -1.0236931193e-01
 63         0.0000000000e+00
 64         9.1528331602e-01
 65         7.1535338587e-01
 66         0.0000000000e+00
 67        -8.9072094981e-01
 68        -7.0966276348e-01
 69        -1.7091300761e-02
 70         0.0000000000e+00
 71        -1.1390923924e-03
 72         4.5965366280e-02
 73         0.0000000000e+00
 74         2.0612045317e-01
 75         0.0000000000e+00
 76        -1.5202204848e-02
 77        -3.4634395790e-01
 78         0.0000000000e+00
 79        -1.8824621232e-02
 80         0.0000000000e+00
 81         7.4157581510e-03
 82        -2.1679416285e-02
 83         0.0000000000e+00
 84         0.0000000000e+00
 85         3.4784879752e-02
 86        -1.8651461312e-02
 87         5.8133843342e-01
 88         5.4563957933e-01
 89         1.0824558145e-02
 90         0.0000000000e+00
 91        -7.8965014806e-02
 92         1.0236931193e-01
 93         0.0000000000e+00
 94         9.1528331602e-01
 95        -7.1535338587e-01
 96         0.0000000000e+00
 97        -8.9072094981e-01
 98         7.0966276348e-01
 99         1.7091300761e-02
100         0.0000000000e+00
101        -1.1390923924e-03
102        -4.5965366280e-02
103         0.0000000000e+00
104        -2.0612045317e-01
105         0.0000000000e+00
106        -1.5202204848e-02
107         3.4634395790e-01
108         0.0000000000e+00
109         1.8824621232e-02
110         0.0000000000e+00
111         7.4157581510e-03
112         2.1679416285e-02
113         0.0000000000e+00
114         0.0000000000e+00
115         3.4784879752e-02
 Sym= A2
 Ene=         2.1577009529e+00
 Spin= Alpha
 Occup=         0.0000000000e+00
  1         0.0000000000e+00
  2         0.0000000000e+00
  3         0.0000000000e+00
  4         0.0000000000e+00
  5         0.0000000000e+00
  6         0.0000000000e+00
  7         0.0000000000e+00
  8         0.0000000000e+00
  9         0.0000000000e+00
 10         0.0000000000e+00
 11         0.0000000000e+00
 12         0.0000000000e+00
 13         0.0000000000e+00
 14         0.0000000000e+00
 15         0.0000000000e+00
 16         0.0000000000e+00
 17         0.0000000000e+00
 18         0.0000000000e+00
 19         0.0000000000e+00
 20         0.0000000000e+00
 21         0.0000000000e+00
 22         2.5662615758e-02
 23         0.0000000000e+00
 24         0.0000000000e+00
 25         0.0000000000e+00
 26         0.0000000000e+00
 27        -1.0858416124e-01
 28         0.0000000000e+00
 29         0.0000000000e+00
 30         0.0000000000e+00
 31         0.0000000000e+00
 32         3.3296500907e-02
 33         0.0000000000e+00
 34         0.0000000000e+00
 35         0.0000000000e+00
 36         0.0000000000e+00
 37        -1.5570838777e-02
 38         0.0000000000e+00
 39         0.0000000000e+00
 40         0.0000000000e+00
 41         0.0000000000e+00
 42         0.0000000000e+00
 43         0.0000000000e+00
 44         2.4393689245e-01
 45         0.0000000000e+00
 46         0.0000000000e+00
 47         0.0000000000e+00
 48         0.0000000000e+00
 49         0.0000000000e+00
 50         0.0000000000e+00
 51        -1.6852225099e-02
 52         0.0000000000e+00
 53         0.0000000000e+00
 54         0.0000000000e+00
 55         6.3741483645e-03
 56         0.0000000000e+00
 57         0.0000000000e+00
 58         0.0000000000e+00
 59         0.0000000000e+00
 60         7.7615635662e-02
 61         0.0000000000e+00
 62         0.0000000000e+00
 63        -6.3674363005e-01
 64         0.0000000000e+00
 65         0.0000000000e+00
 66         6.7132522204e-01
 67         0.0000000000e+00
 68         0.0000000000e+00
 69         0.0000000000e+00
 70         3.1247056784e-02
 71         0.0000000000e+00
 72         0.0000000000e+00
 73         7.2282065537e-02
 74         0.0000000000e+00
 75        -1.7948217196e-01
 76         0.0000000000e+00
 77         0.0000000000e+00
 78        -7.8132879774e-01
 79         0.0000000000e+00
 80         6.0209392706e-03
 81         0.0000000000e+00
 82         0.0000000000e+00
 83        -4.1587492223e-02
 84        -1.9656427888e-02
 85         0.0000000000e+00
 86         0.0000000000e+00
 87         0.0000000000e+00
 88         0.0000000000e+00
 89         0.0000000000e+00
 90        -7.7615635662e-02
 91         0.0000000000e+00
 92         0.0000000000e+00
 93         6.3674363005e-01
 94         0.0000000000e+00
 95         0.0000000000e+00
 96        -6.7132522204e-01
 97         0.0000000000e+00
 98         0.0000000000e+00
 99         0.0000000000e+00
100        -3.1247056784e-02
101         0.0000000000e+00
102         0.0000000000e+00
103         7.2282065537e-02
104         0.0000000000e+00
105         1.7948217196e-01
106         0.0000000000e+00
107         0.0000000000e+00
108        -7.8132879774e-01
109         0.0000000000e+00
110        -6.0209392706e-03
111         0.0000000000e+00
112         0.0000000000e+00
113        -4.1587492223e-02
114         1.9656427888e-02
115         0.0000000000e+00
 Sym= B1
 Ene=         2.1651642669e+00
 Spin= Alpha
 Occup=         0.0000000000e+00
  1         0.0000000000e+00
  2         0.0000000000e+00
  3         0.0000000000e+00
  4         0.0000000000e+00
  5         0.0000000000e+00
  6         1.3187525514e-01
  7         0.0000000000e+00
  8         0.0000000000e+00
  9         5.4804964765e-01
 10         0.0000000000e+00
 11         0.0000000000e+00
 12         2.3097186580e-01
 13         0.0000000000e+00
 14         0.0000000000e+00
 15         1.1713548843e+00
 16         0.0000000000e+00
 17         0.0000000000e+00
 18         0.0000000000e+00
 19         1.1717198943e-02
 20         0.0000000000e+00
 21         0.0000000000e+00
 22         0.0000000000e+00
 23         0.0000000000e+00
 24        -7.2188954301e-02
 25         0.0000000000e+00
 26         0.0000000000e+00
 27         0.0000000000e+00
 28         0.0000000000e+00
 29        -7.3174608580e-01
 30         0.0000000000e+00
 31         0.0000000000e+00
 32         0.0000000000e+00
 33         0.0000000000e+00
 34        -9.9710338806e-03
 35         0.0000000000e+00
 36         0.0000000000e+00
 37         0.0000000000e+00
 38         2.1649789194e-02
 39         0.0000000000e+00
 40         0.0000000000e+00
 41         1.1938001991e-01
 42         0.0000000000e+00
 43         0.0000000000e+00
 44         0.0000000000e+00
 45        -3.1748236857e-01
 46         0.0000000000e+00
 47         0.0000000000e+00
 48         3.8526308226e-03
 49         0.0000000000e+00
 50         0.0000000000e+00
 51         0.0000000000e+00
 52         3.6929857901e-02
 53         0.0000000000e+00
 54         0.0000000000e+00
 55         0.0000000000e+00
 56         0.0000000000e+00
 57         0.0000000000e+00
 58         0.0000000000e+00
 59         0.0000000000e+00
 60        -3.1488283775e-02
 61         0.0000000000e+00
 62         0.0000000000e+00
 63         3.3308357994e-01
 64         0.0000000000e+00
 65         0.0000000000e+00
 66        -1.0716260079e+00
 67         0.0000000000e+00
 68         0.0000000000e+00
 69         0.0000000000e+00
 70         5.3929513059e-02
 71         0.0000000000e+00
 72         0.0000000000e+00
 73        -6.5513609902e-02
 74         0.0000000000e+00
 75        -6.2459334097e-01
 76         0.0000000000e+00
 77         0.0000000000e+00
 78         7.7239314927e-01
 79         0.0000000000e+00
 80        -1.2619884502e-02
 81         0.0000000000e+00
 82         0.0000000000e+00
 83         3.3737842099e-02
 84         3.8842400280e-02
 85         0.0000000000e+00
 86         0.0000000000e+00
 87         0.0000000000e+00
 88         0.0000000000e+00
 89         0.0000000000e+00
 90        -3.1488283775e-02
 91         0.0000000000e+00
 92         0.0000000000e+00
 93         3.3308357994e-01
 94         0.0000000000e+00
 95         0.0000000000e+00
 96        -1.0716260079e+00
 97         0.0000000000e+00
 98         0.0000000000e+00
 99         0.0000000000e+00
100         5.3929513059e-02
101         0.0000000000e+00
102         0.0000000000e+00
103         6.5513609902e-02
104         0.0000000000e+00
105        -6.2459334097e-01
106         0.0000000000e+00
107         0.0000000000e+00
108        -7.7239314927e-01
109         0.0000000000e+00
110        -1.2619884502e-02
111         0.0000000000e+00
112         0.0000000000e+00
113        -3.3737842099e-02
114         3.8842400280e-02
115         0.0000000000e+00
 Sym= B2
 Ene=         2.2592501817e+00
 Spin= Alpha
 Occup=         0.0000000000e+00
  1         0.0000000000e+00
  2         0.0000000000e+00
  3         0.0000000000e+00
  4         0.0000000000e+00
  5         0.0000000000e+00
  6         0.0000000000e+00
  7         1.2005132258e-01
  8         0.0000000000e+00
  9         0.0000000000e+00
 10         1.7918865105e-01
 11         0.0000000000e+00
 12         0.0000000000e+00
 13        -1.9904972917e+00
 14         0.0000000000e+00
 15         0.0000000000e+00
 16        -1.5093998207e+00
 17         0.0000000000e+00
 18         0.0000000000e+00
 19         0.0000000000e+00
 20        -7.1749155853e-03
 21         0.0000000000e+00
 22         0.0000000000e+00
 23         0.0000000000e+00
 24         0.0000000000e+00
 25         3.2908119040e-01
 26         0.0000000000e+00
 27         0.0000000000e+00
 28         0.0000000000e+00
 29         0.0000000000e+00
 30        -5.0742099679e-01
 31         0.0000000000e+00
 32         0.0000000000e+00
 33         0.0000000000e+00
 34         0.0000000000e+00
 35        -3.3599534886e-02
 36         0.0000000000e+00
 37         0.0000000000e+00
 38         0.0000000000e+00
 39         1.1414866072e-02
 40         0.0000000000e+00
 41         0.0000000000e+00
 42         3.4125927156e-01
 43         0.0000000000e+00
 44         0.0000000000e+00
 45         0.0000000000e+00
 46         2.2755735111e-02
 47         0.0000000000e+00
 48         0.0000000000e+00
 49        -2.1215996701e-02
 50         0.0000000000e+00
 51         0.0000000000e+00
 52         0.0000000000e+00
 53         2.0347712585e-02
 54         0.0000000000e+00
 55         0.0000000000e+00
 56        -1.3138777826e-02
 57        -4.8758934412e-01
 58         3.0470571368e+00
 59         7.0784745536e-01
 60         0.0000000000e+00
 61        -2.3532251400e-03
 62         2.6470426845e-02
 63         0.0000000000e+00
 64         4.5209430778e-01
 65        -4.8487694590e-01
 66         0.0000000000e+00
 67        -1.8796656804e+00
 68         1.9132952199e+00
 69        -4.4272479835e-03
 70         0.0000000000e+00
 71         6.1775762197e-02
 72         5.1214491386e-02
 73         0.0000000000e+00
 74         3.7528844428e-01
 75         0.0000000000e+00
 76        -9.2766790198e-01
 77        -4.7098706819e-01
 78         0.0000000000e+00
 79        -2.1567741420e-03
 80         0.0000000000e+00
 81        -8.8750920253e-02
 82        -5.5562994313e-02
 83         0.0000000000e+00
 84         0.0000000000e+00
 85         2.8609802218e-02
 86         1.3138777826e-02
 87         4.8758934412e-01
 88        -3.0470571368e+00
 89        -7.0784745536e-01
 90         0.0000000000e+00
 91        -2.3532251400e-03
 92        -2.6470426845e-02
 93         0.0000000000e+00
 94         4.5209430778e-01
 95         4.8487694590e-01
 96         0.0000000000e+00
 97        -1.8796656804e+00
 98        -1.9132952199e+00
 99         4.4272479835e-03
100         0.0000000000e+00
101         6.1775762197e-02
102        -5.1214491386e-02
103         0.0000000000e+00
104        -3.7528844428e-01
105         0.0000000000e+00
106        -9.2766790198e-01
107         4.7098706819e-01
108         0.0000000000e+00
109         2.1567741420e-03
110         0.0000000000e+00
111        -8.8750920253e-02
112         5.5562994313e-02
113         0.0000000000e+00
114         0.0000000000e+00
115         2.8609802218e-02
 Sym= A1
 Ene=         2.2933208036e+00
 Spin= Alpha
 Occup=         0.0000000000e+00
  1         5.2059306146e-02
  2         1.8883832881e-01
  3         5.8364258974e-01
  4        -3.1784565096e+00
  5        -3.9033662425e+00
  6         0.0000000000e+00
  7         0.0000000000e+00
  8        -8.6154651409e-02
  9         0.0000000000e+00
 10         0.0000000000e+00
 11        -1.3786363153e-01
 12         0.0000000000e+00
 13         0.0000000000e+00
 14         1.6349484550e+00
 15         0.0000000000e+00
 16         0.0000000000e+00
 17         7.4967978929e-01
 18         1.1682168792e-02
 19         0.0000000000e+00
 20         0.0000000000e+00
 21        -7.2226573276e-03
 22         0.0000000000e+00
 23        -2.7002682312e-02
 24         0.0000000000e+00
 25         0.0000000000e+00
 26         2.6790751375e-01
 27         0.0000000000e+00
 28        -3.5122805007e-01
 29         0.0000000000e+00
 30         0.0000000000e+00
 31        -5.5898404805e-01
 32         0.0000000000e+00
 33        -2.8928037399e-02
 34         0.0000000000e+00
 35         0.0000000000e+00
 36        -3.5643463643e-02
 37         0.0000000000e+00
 38         0.0000000000e+00
 39         0.0000000000e+00
 40         2.1285460899e-01
 41         0.0000000000e+00
 42         0.0000000000e+00
 43         1.5208069467e-01
 44         0.0000000000e+00
 45         0.0000000000e+00
 46         0.0000000000e+00
 47        -9.3683071850e-03
 48         0.0000000000e+00
 49         0.0000000000e+00
 50        -4.8658030155e-03
 51         0.0000000000e+00
 52         0.0000000000e+00
 53         0.0000000000e+00
 54         2.5908210150e-02
 55         0.0000000000e+00
 56        -2.4688028313e-02
 57        -4.5244315404e-01
 58         2.8269592094e+00
 59         2.5784025184e-01
 60         0.0000000000e+00
 61        -1.2394207464e-02
 62         3.7670867968e-03
 63         0.0000000000e+00
 64         5.0057313554e-01
 65        -3.5251502414e-01
 66         0.0000000000e+00
 67        -2.1339497614e+00
 68         1.1533890936e+00
 69         1.4988094287e-02
 70         0.0000000000e+00
 71         7.7335475204e-02
 72         4.5236495418e-02
 73         0.0000000000e+00
 74        -3.3311175879e-01
 75         0.0000000000e+00
 76        -8.5583001870e-01
 77        -7.2436532886e-01
 78         0.0000000000e+00
 79        -4.6452019100e-02
 80         0.0000000000e+00
 81         1.5187450901e-03
 82        -8.2808838926e-02
 83         0.0000000000e+00
 84         0.0000000000e+00
 85         4.5654876127e-02
 86        -2.4688028313e-02
 87        -4.5244315404e-01
 88         2.8269592094e+00
 89         2.5784025184e-01
 90         0.0000000000e+00
 91         1.2394207464e-02
 92         3.7670867968e-03
 93         0.0000000000e+00
 94        -5.0057313554e-01
 95        -3.5251502414e-01
 96         0.0000000000e+00
 97         2.1339497614e+00
 98         1.1533890936e+00
 99         1.4988094287e-02
100         0.0000000000e+00
101        -7.7335475204e-02
102         4.5236495418e-02
103         0.0000000000e+00
104        -3.3311175879e-01
105         0.0000000000e+00
106         8.5583001870e-01
107        -7.2436532886e-01
108         0.0000000000e+00
109        -4.6452019100e-02
110         0.0000000000e+00
111        -1.5187450901e-03
112        -8.2808838926e-02
113         0.0000000000e+00
114         0.0000000000e+00
115        -4.5654876127e-02
 Sym= A2
 Ene=         2.4450576660e+00
 Spin= Alpha
 Occup=         0.0000000000e+00
  1         0.0000000000e+00
  2         0.0000000000e+00
  3         0.0000000000e+00
  4         0.0000000000e+00
  5         0.0000000000e+00
  6         0.0000000000e+00
  7         0.0000000000e+00
  8         0.0000000000e+00
  9         0.0000000000e+00
 10         0.0000000000e+00
 11         0.0000000000e+00
 12         0.0000000000e+00
 13         0.0000000000e+00
 14         0.0000000000e+00
 15         0.0000000000e+00
 16         0.0000000000e+00
 17         0.0000000000e+00
 18         0.0000000000e+00
 19         0.0000000000e+00
 20         0.0000000000e+00
 21         0.0000000000e+00
 22         1.1711266050e-02
 23         0.0000000000e+00
 24         0.0000000000e+00
 25         0.0000000000e+00
 26         0.0000000000e+00
 27         9.0020490505e-02
 28         0.0000000000e+00
 29         0.0000000000e+00
 30         0.0000000000e+00
 31         0.0000000000e+00
 32        -2.1236525477e+00
 33         0.0000000000e+00
 34         0.0000000000e+00
 35         0.0000000000e+00
 36         0.0000000000e+00
 37        -1.6940791299e-02
 38         0.0000000000e+00
 39         0.0000000000e+00
 40         0.0000000000e+00
 41         0.0000000000e+00
 42         0.0000000000e+00
 43         0.0000000000e+00
 44         3.0152237398e-01
 45         0.0000000000e+00
 46         0.0000000000e+00
 47         0.0000000000e+00
 48         0.0000000000e+00
 49         0.0000000000e+00
 50         0.0000000000e+00
 51        -3.6982108967e-02
 52         0.0000000000e+00
 53         0.0000000000e+00
 54         0.0000000000e+00
 55         5.5489373770e-02
 56         0.0000000000e+00
 57         0.0000000000e+00
 58         0.0000000000e+00
 59         0.0000000000e+00
 60        -8.0722761490e-02
 61         0.0000000000e+00
 62         0.0000000000e+00
 63         6.3959388782e-01
 64         0.0000000000e+00
 65         0.0000000000e+00
 66         8.9057934795e-01
 67         0.0000000000e+00
 68         0.0000000000e+00
 69         0.0000000000e+00
 70        -7.8349852675e-02
 71         0.0000000000e+00
 72         0.0000000000e+00
 73         5.3498964671e-02
 74         0.0000000000e+00
 75         1.0853502961e+00
 76         0.0000000000e+00
 77         0.0000000000e+00
 78        -9.7059994170e-01
 79         0.0000000000e+00
 80         5.5736171782e-03
 81         0.0000000000e+00
 82         0.0000000000e+00
 83        -7.6935194751e-02
 84        -4.7912447873e-02
 85         0.0000000000e+00
 86         0.0000000000e+00
 87         0.0000000000e+00
 88         0.0000000000e+00
 89         0.0000000000e+00
 90         8.0722761490e-02
 91         0.0000000000e+00
 92         0.0000000000e+00
 93        -6.3959388782e-01
 94         0.0000000000e+00
 95         0.0000000000e+00
 96        -8.9057934795e-01
 97         0.0000000000e+00
 98         0.0000000000e+00
 99         0.0000000000e+00
100         7.8349852675e-02
101         0.0000000000e+00
102         0.0000000000e+00
103         5.3498964671e-02
104         0.0000000000e+00
105        -1.0853502961e+00
106         0.0000000000e+00
107         0.0000000000e+00
108        -9.7059994170e-01
109         0.0000000000e+00
110        -5.5736171782e-03
111         0.0000000000e+00
112         0.0000000000e+00
113        -7.6935194751e-02
114         4.7912447873e-02
115         0.0000000000e+00
 Sym= A1
 Ene=         2.4643434011e+00
 Spin= Alpha
 Occup=         0.0000000000e+00
  1         3.4842468330e-03
  2         1.0876547739e-01
  3        -1.6702957497e-01
  4         1.4713446503e+00
  5         8.3361848503e+00
  6         0.0000000000e+00
  7         0.0000000000e+00
  8         1.4490189274e-01
  9         0.0000000000e+00
 10         0.0000000000e+00
 11         8.5888214763e-01
 12         0.0000000000e+00
 13         0.0000000000e+00
 14        -2.3682744541e+00
 15         0.0000000000e+00
 16         0.0000000000e+00
 17        -1.1444675263e+00
 18        -6.1283523222e-03
 19         0.0000000000e+00
 20         0.0000000000e+00
 21         1.7921122676e-02
 22         0.0000000000e+00
 23         1.2756084837e-01
 24         0.0000000000e+00
 25         0.0000000000e+00
 26        -1.2226893768e-01
 27         0.0000000000e+00
 28        -1.3928397416e+00
 29         0.0000000000e+00
 30         0.0000000000e+00
 31        -2.2751236591e+00
 32         0.0000000000e+00
 33        -1.3433163871e-02
 34         0.0000000000e+00
 35         0.0000000000e+00
 36        -1.6898427511e-03
 37         0.0000000000e+00
 38         0.0000000000e+00
 39         0.0000000000e+00
 40         2.3909924336e-01
 41         0.0000000000e+00
 42         0.0000000000e+00
 43         2.3689243887e-01
 44         0.0000000000e+00
 45         0.0000000000e+00
 46         0.0000000000e+00
 47        -1.7676919580e-02
 48         0.0000000000e+00
 49         0.0000000000e+00
 50        -4.4291259890e-03
 51         0.0000000000e+00
 52         0.0000000000e+00
 53         0.0000000000e+00
 54         3.5709174966e-02
 55         0.0000000000e+00
 56         3.6417054547e-02
 57        -8.7266422732e-01
 58        -4.4545419332e+00
 59        -2.5081011506e-01
 60         0.0000000000e+00
 61         3.2670461142e-02
 62         1.0082448431e-01
 63         0.0000000000e+00
 64         1.5737307518e-01
 65        -1.0917730278e+00
 66         0.0000000000e+00
 67         1.3685727495e+00
 68        -1.5268674119e+00
 69         6.4669300697e-02
 70         0.0000000000e+00
 71         3.9120632180e-02
 72         3.6808294924e-02
 73         0.0000000000e+00
 74        -8.1678432277e-01
 75         0.0000000000e+00
 76         4.3197049915e-01
 77        -6.8323561803e-02
 78         0.0000000000e+00
 79         3.5428407046e-02
 80         0.0000000000e+00
 81         3.6343407050e-02
 82         3.4947869295e-02
 83         0.0000000000e+00
 84         0.0000000000e+00
 85         1.3327795512e-02
 86         3.6417054547e-02
 87        -8.7266422732e-01
 88        -4.4545419332e+00
 89        -2.5081011506e-01
 90         0.0000000000e+00
 91        -3.2670461142e-02
 92         1.0082448431e-01
 93         0.0000000000e+00
 94        -1.5737307518e-01
 95        -1.0917730278e+00
 96         0.0000000000e+00
 97        -1.3685727495e+00
 98        -1.5268674119e+00
 99         6.4669300697e-02
100         0.0000000000e+00
101        -3.9120632180e-02
102         3.6808294924e-02
103         0.0000000000e+00
104        -8.1678432277e-01
105         0.0000000000e+00
106        -4.3197049915e-01
107        -6.8323561803e-02
108         0.0000000000e+00
109         3.5428407046e-02
110         0.0000000000e+00
111        -3.6343407050e-02
112         3.4947869295e-02
113         0.0000000000e+00
114         0.0000000000e+00
115        -1.3327795512e-02
 Sym= B1
 Ene=         2.6127196433e+00
 Spin= Alpha
 Occup=         0.0000000000e+00
  1         0.0000000000e+00
  2         0.0000000000e+00
  3         0.0000000000e+00
  4         0.0000000000e+00
  5         0.0000000000e+00
  6         7.2551247290e-02
  7         0.0000000000e+00
  8         0.0000000000e+00
  9         7.8694533521e-01
 10         0.0000000000e+00
 11         0.0000000000e+00
 12        -2.5274704369e+00
 13         0.0000000000e+00
 14         0.0000000000e+00
 15        -1.1974826094e-02
 16         0.0000000000e+00
 17         0.0000000000e+00
 18         0.0000000000e+00
 19        -7.0125610379e-03
 20         0.0000000000e+00
 21         0.0000000000e+00
 22         0.0000000000e+00
 23         0.0000000000e+00
 24        -1.0470635053e-01
 25         0.0000000000e+00
 26         0.0000000000e+00
 27         0.0000000000e+00
 28         0.0000000000e+00
 29         1.1183816678e+00
 30         0.0000000000e+00
 31         0.0000000000e+00
 32         0.0000000000e+00
 33         0.0000000000e+00
 34        -1.8546907485e-02
 35         0.0000000000e+00
 36         0.0000000000e+00
 37         0.0000000000e+00
 38         1.2123037799e-02
 39         0.0000000000e+00
 40         0.0000000000e+00
 41         1.7402805390e-01
 42         0.0000000000e+00
 43         0.0000000000e+00
 44         0.0000000000e+00
 45        -2.5282325961e-02
 46         0.0000000000e+00
 47         0.0000000000e+00
 48        -8.0704591119e-03
 49         0.0000000000e+00
 50         0.0000000000e+00
 51         0.0000000000e+00
 52        -5.9039797152e-02
 53         0.0000000000e+00
 54         0.0000000000e+00
 55         0.0000000000e+00
 56         0.0000000000e+00
 57         0.0000000000e+00
 58         0.0000000000e+00
 59         0.0000000000e+00
 60        -7.2197688586e-02
 61         0.0000000000e+00
 62         0.0000000000e+00
 63         5.6118121937e-01
 64         0.0000000000e+00
 65         0.0000000000e+00
 66         5.4639330987e-01
 67         0.0000000000e+00
 68         0.0000000000e+00
 69         0.0000000000e+00
 70        -3.3889798728e-02
 71         0.0000000000e+00
 72         0.0000000000e+00
 73         6.2364720499e-02
 74         0.0000000000e+00
 75         5.4242245366e-01
 76         0.0000000000e+00
 77         0.0000000000e+00
 78        -9.1600194053e-01
 79         0.0000000000e+00
 80         2.3849568173e-02
 81         0.0000000000e+00
 82         0.0000000000e+00
 83        -3.7535657598e-02
 84        -6.9347897675e-02
 85         0.0000000000e+00
 86         0.0000000000e+00
 87         0.0000000000e+00
 88         0.0000000000e+00
 89         0.0000000000e+00
 90        -7.2197688586e-02
 91         0.0000000000e+00
 92         0.0000000000e+00
 93         5.6118121937e-01
 94         0.0000000000e+00
 95         0.0000000000e+00
 96         5.4639330987e-01
 97         0.0000000000e+00
 98         0.0000000000e+00
 99         0.0000000000e+00
100        -3.3889798728e-02
101         0.0000000000e+00
102         0.0000000000e+00
103        -6.2364720499e-02
104         0.0000000000e+00
105         5.4242245366e-01
106         0.0000000000e+00
107         0.0000000000e+00
108         9.1600194053e-01
109         0.0000000000e+00
110         2.3849568173e-02
111         0.0000000000e+00
112         0.0000000000e+00
113         3.7535657598e-02
114        -6.9347897675e-02
115         0.0000000000e+00
 Sym= B2
 Ene=         2.6464574727e+00
 Spin= Alpha
 Occup=         0.0000000000e+00
  1         0.0000000000e+00
  2         0.0000000000e+00
  3         0.0000000000e+00
  4         0.0000000000e+00
  5         0.0000000000e+00
  6         0.0000000000e+00
  7         1.0931209348e-01
  8         0.0000000000e+00
  9         0.0000000000e+00
 10         5.5888776467e-01
 11         0.0000000000e+00
 12         0.0000000000e+00
 13        -2.0421178920e+00
 14         0.0000000000e+00
 15         0.0000000000e+00
 16        -1.0326802989e+00
 17         0.0000000000e+00
 18         0.0000000000e+00
 19         0.0000000000e+00
 20        -3.4124284770e-02
 21         0.0000000000e+00
 22         0.0000000000e+00
 23         0.0000000000e+00
 24         0.0000000000e+00
 25         1.4613173995e-01
 26         0.0000000000e+00
 27         0.0000000000e+00
 28         0.0000000000e+00
 29         0.0000000000e+00
 30         1.4475004996e+00
 31         0.0000000000e+00
 32         0.0000000000e+00
 33         0.0000000000e+00
 34         0.0000000000e+00
 35         1.6389258054e-02
 36         0.0000000000e+00
 37         0.0000000000e+00
 38         0.0000000000e+00
 39         2.4852885858e-02
 40         0.0000000000e+00
 41         0.0000000000e+00
 42        -3.8517729198e-01
 43         0.0000000000e+00
 44         0.0000000000e+00
 45         0.0000000000e+00
 46        -1.9786083172e-01
 47         0.0000000000e+00
 48         0.0000000000e+00
 49         3.9589989509e-02
 50         0.0000000000e+00
 51         0.0000000000e+00
 52         0.0000000000e+00
 53        -1.5139996770e-02
 54         0.0000000000e+00
 55         0.0000000000e+00
 56        -2.7611051108e-02
 57         2.7403480917e-01
 58         3.3109162491e+00
 59         2.4400034426e-01
 60         0.0000000000e+00
 61         2.2985562856e-02
 62        -1.2309244721e-03
 63         0.0000000000e+00
 64        -4.2284856876e-01
 65         1.1557247846e-01
 66         0.0000000000e+00
 67        -2.0580000847e+00
 68         2.8060547635e-01
 69         5.4150178423e-02
 70         0.0000000000e+00
 71        -6.6894891511e-02
 72         4.2786941819e-02
 73         0.0000000000e+00
 74        -8.9257344824e-01
 75         0.0000000000e+00
 76         2.5946449558e-01
 77        -9.7646834843e-01
 78         0.0000000000e+00
 79        -5.9717444405e-02
 80         0.0000000000e+00
 81         3.7770842595e-02
 82        -5.9173496166e-02
 83         0.0000000000e+00
 84         0.0000000000e+00
 85         2.4532157412e-02
 86         2.7611051108e-02
 87        -2.7403480917e-01
 88        -3.3109162491e+00
 89        -2.4400034426e-01
 90         0.0000000000e+00
 91         2.2985562856e-02
 92         1.2309244721e-03
 93         0.0000000000e+00
 94        -4.2284856876e-01
 95        -1.1557247846e-01
 96         0.0000000000e+00
 97        -2.0580000847e+00
 98        -2.8060547635e-01
 99        -5.4150178423e-02
100         0.0000000000e+00
101        -6.6894891511e-02
102        -4.2786941819e-02
103         0.0000000000e+00
104         8.9257344824e-01
105         0.0000000000e+00
106         2.5946449558e-01
107         9.7646834843e-01
108         0.0000000000e+00
109         5.9717444405e-02
110         0.0000000000e+00
111         3.7770842595e-02
112         5.9173496166e-02
113         0.0000000000e+00
114         0.0000000000e+00
115         2.4532157412e-02
 Sym= B2
 Ene=         2.8604284694e+00
 Spin= Alpha
 Occup=         0.0000000000e+00
  1         0.0000000000e+00
  2         0.0000000000e+00
  3         0.0000000000e+00
  4         0.0000000000e+00
  5         0.0000000000e+00
  6         0.0000000000e+00
  7         5.3013143920e-02
  8         0.0000000000e+00
  9         0.0000000000e+00
 10        -1.0457512683e-01
 11         0.0000000000e+00
 12         0.0000000000e+00
 13         6.4582723254e+00
 14         0.0000000000e+00
 15         0.0000000000e+00
 16         2.9697362992e+00
 17         0.0000000000e+00
 18         0.0000000000e+00
 19         0.0000000000e+00
 20         8.9136119984e-02
 21         0.0000000000e+00
 22         0.0000000000e+00
 23         0.0000000000e+00
 24         0.0000000000e+00
 25        -2.3384007018e-01
 26         0.0000000000e+00
 27         0.0000000000e+00
 28         0.0000000000e+00
 29         0.0000000000e+00
 30        -2.5763049121e+00
 31         0.0000000000e+00
 32         0.0000000000e+00
 33         0.0000000000e+00
 34         0.0000000000e+00
 35        -1.2314617094e-02
 36         0.0000000000e+00
 37         0.0000000000e+00
 38         0.0000000000e+00
 39         1.0341382751e-02
 40         0.0000000000e+00
 41         0.0000000000e+00
 42         3.5123648923e-01
 43         0.0000000000e+00
 44         0.0000000000e+00
 45         0.0000000000e+00
 46        -4.4098648863e-01
 47         0.0000000000e+00
 48         0.0000000000e+00
 49         1.4339216167e-02
 50         0.0000000000e+00
 51         0.0000000000e+00
 52         0.0000000000e+00
 53         5.5556960607e-02
 54         0.0000000000e+00
 55         0.0000000000e+00
 56         3.3712132416e-02
 57        -1.3312431584e+00
 58        -6.9122208663e+00
 59        -2.2563365438e-01
 60         0.0000000000e+00
 61        -1.4395919059e-01
 62         1.0935291768e-01
 63         0.0000000000e+00
 64         1.8698682007e+00
 65        -1.2712241686e+00
 66         0.0000000000e+00
 67         2.5793009795e+00
 68        -1.8964727280e+00
 69         2.1193728941e-02
 70         0.0000000000e+00
 71        -6.4700918495e-03
 72        -5.1675760371e-05
 73         0.0000000000e+00
 74        -1.1071412593e-01
 75         0.0000000000e+00
 76         1.3941352535e+00
 77         1.0364725537e+00
 78         0.0000000000e+00
 79         3.9770634667e-02
 80         0.0000000000e+00
 81         2.2802234667e-02
 82         6.7687339416e-02
 83         0.0000000000e+00
 84         0.0000000000e+00
 85        -4.2518882801e-02
 86        -3.3712132416e-02
 87         1.3312431584e+00
 88         6.9122208663e+00
 89         2.2563365438e-01
 90         0.0000000000e+00
 91        -1.4395919059e-01
 92        -1.0935291768e-01
 93         0.0000000000e+00
 94         1.8698682007e+00
 95         1.2712241686e+00
 96         0.0000000000e+00
 97         2.5793009795e+00
 98         1.8964727280e+00
 99        -2.1193728941e-02
100         0.0000000000e+00
101        -6.4700918495e-03
102         5.1675760371e-05
103         0.0000000000e+00
104         1.1071412593e-01
105         0.0000000000e+00
106         1.3941352535e+00
107        -1.0364725537e+00
108         0.0000000000e+00
109        -3.9770634667e-02
110         0.0000000000e+00
111         2.2802234667e-02
112        -6.7687339416e-02
113         0.0000000000e+00
114         0.0000000000e+00
115        -4.2518882801e-02
 Sym= A1
 Ene=         2.9103314034e+00
 Spin= Alpha
 Occup=         0.0000000000e+00
  1         3.2326895663e-02
  2        -5.9082447572e-02
  3         5.4382059944e-01
  4        -4.1632590419e+00
  5        -4.2201870784e+00
  6         0.0000000000e+00
  7         0.0000000000e+00
  8         8.7494509926e-02
  9         0.0000000000e+00
 10         0.0000000000e+00
 11         5.5257449041e-01
 12         0.0000000000e+00
 13         0.0000000000e+00
 14         9.8348255292e-01
 15         0.0000000000e+00
 16         0.0000000000e+00
 17         7.9585206004e-01
 18        -3.1784363931e-03
 19         0.0000000000e+00
 20         0.0000000000e+00
 21        -3.9710759862e-02
 22         0.0000000000e+00
 23        -1.0954556464e-01
 24         0.0000000000e+00
 25         0.0000000000e+00
 26         4.1219040629e-02
 27         0.0000000000e+00
 28         1.0181523541e+00
 29         0.0000000000e+00
 30         0.0000000000e+00
 31         1.6028532700e+00
 32         0.0000000000e+00
 33        -1.2486288139e-02
 34         0.0000000000e+00
 35         0.0000000000e+00
 36         4.6956521843e-02
 37         0.0000000000e+00
 38         0.0000000000e+00
 39         0.0000000000e+00
 40        -3.6808168410e-02
 41         0.0000000000e+00
 42         0.0000000000e+00
 43        -8.0203601059e-01
 44         0.0000000000e+00
 45         0.0000000000e+00
 46         0.0000000000e+00
 47         6.3716267829e-03
 48         0.0000000000e+00
 49         0.0000000000e+00
 50        -8.3183343952e-04
 51         0.0000000000e+00
 52         0.0000000000e+00
 53         0.0000000000e+00
 54        -2.6141931531e-02
 55         0.0000000000e+00
 56        -2.5445091557e-02
 57         8.0832735155e-01
 58         3.2167026639e+00
 59         2.0801966906e-02
 60         0.0000000000e+00
 61         2.9633699562e-02
 62        -9.5864084998e-02
 63         0.0000000000e+00
 64        -7.0081288054e-01
 65         1.2003942017e+00
 66         0.0000000000e+00
 67        -9.7554259682e-01
 68         1.1396648439e+00
 69        -2.1854074745e-02
 70         0.0000000000e+00
 71         1.4963109076e-02
 72         1.4342145351e-02
 73         0.0000000000e+00
 74         5.5015267025e-01
 75         0.0000000000e+00
 76        -1.0263935514e+00
 77        -5.1938175132e-01
 78         0.0000000000e+00
 79         4.2967275025e-03
 80         0.0000000000e+00
 81        -5.2626463182e-02
 82        -4.5621377269e-02
 83         0.0000000000e+00
 84         0.0000000000e+00
 85        -3.2213786090e-02
 86        -2.5445091557e-02
 87         8.0832735155e-01
 88         3.2167026639e+00
 89         2.0801966906e-02
 90         0.0000000000e+00
 91        -2.9633699562e-02
 92        -9.5864084998e-02
 93         0.0000000000e+00
 94         7.0081288054e-01
 95         1.2003942017e+00
 96         0.0000000000e+00
 97         9.7554259682e-01
 98         1.1396648439e+00
 99        -2.1854074745e-02
100         0.0000000000e+00
101        -1.4963109076e-02
102         1.4342145351e-02
103         0.0000000000e+00
104         5.5015267025e-01
105         0.0000000000e+00
106         1.0263935514e+00
107        -5.1938175132e-01
108         0.0000000000e+00
109         4.2967275025e-03
110         0.0000000000e+00
111         5.2626463182e-02
112        -4.5621377269e-02
113         0.0000000000e+00
114         0.0000000000e+00
115         3.2213786090e-02
 Sym= A1
 Ene=         2.9672127476e+00
 Spin= Alpha
 Occup=         0.0000000000e+00
  1         4.3422793651e-02
  2         2.7744612137e-01
  3        -2.6843804349e-01
  4         4.2716876480e+00
  5         9.1784179538e+00
  6         0.0000000000e+00
  7         0.0000000000e+00
  8         2.7927985639e-02
  9         0.0000000000e+00
 10         0.0000000000e+00
 11         6.5127293696e-01
 12         0.0000000000e+00
 13         0.0000000000e+00
 14        -5.3585896488e+00
 15         0.0000000000e+00
 16         0.0000000000e+00
 17        -2.2562185540e+00
 18        -6.4877600098e-03
 19         0.0000000000e+00
 20         0.0000000000e+00
 21         5.1054563147e-02
 22         0.0000000000e+00
 23        -8.3837369348e-02
 24         0.0000000000e+00
 25         0.0000000000e+00
 26        -1.8439522221e-01
 27         0.0000000000e+00
 28         1.3494147033e+00
 29         0.0000000000e+00
 30         0.0000000000e+00
 31        -7.7644235979e-01
 32         0.0000000000e+00
 33        -2.1869406964e-02
 34         0.0000000000e+00
 35         0.0000000000e+00
 36         7.4648670788e-04
 37         0.0000000000e+00
 38         0.0000000000e+00
 39         0.0000000000e+00
 40         4.6661364110e-01
 41         0.0000000000e+00
 42         0.0000000000e+00
 43         4.5847880914e-01
 44         0.0000000000e+00
 45         0.0000000000e+00
 46         0.0000000000e+00
 47        -4.6677762522e-02
 48         0.0000000000e+00
 49         0.0000000000e+00
 50        -7.3394773515e-02
 51         0.0000000000e+00
 52         0.0000000000e+00
 53         0.0000000000e+00
 54         1.6321615506e-02
 55         0.0000000000e+00
 56         3.5617517304e-02
 57        -1.1664131097e+00
 58        -5.8515478257e+00
 59        -1.3199508324e-01
 60         0.0000000000e+00
 61        -1.6306247565e-01
 62         2.6974941462e-02
 63         0.0000000000e+00
 64         1.8796121074e+00
 65        -6.6614814247e-01
 66         0.0000000000e+00
 67         2.2849227666e+00
 68        -8.6293970221e-01
 69        -5.3463799769e-02
 70         0.0000000000e+00
 71         3.3450949642e-02
 72         1.1820757384e-02
 73         0.0000000000e+00
 74         7.7696550263e-01
 75         0.0000000000e+00
 76         8.3660974454e-01
 77         8.8271431825e-01
 78         0.0000000000e+00
 79         3.6859799883e-02
 80         0.0000000000e+00
 81        -1.6358052987e-02
 82         3.3733309103e-02
 83         0.0000000000e+00
 84         0.0000000000e+00
 85        -7.0775848707e-02
 86         3.5617517304e-02
 87        -1.1664131097e+00
 88        -5.8515478257e+00
 89        -1.3199508324e-01
 90         0.0000000000e+00
 91         1.6306247565e-01
 92         2.6974941462e-02
 93         0.0000000000e+00
 94        -1.8796121074e+00
 95        -6.6614814247e-01
 96         0.0000000000e+00
 97        -2.2849227666e+00
 98        -8.6293970221e-01
 99        -5.3463799769e-02
100         0.0000000000e+00
101        -3.3450949642e-02
102         1.1820757384e-02
103         0.0000000000e+00
104         7.7696550263e-01
105         0.0000000000e+00
106        -8.3660974454e-01
107         8.8271431825e-01
108         0.0000000000e+00
109         3.6859799883e-02
110         0.0000000000e+00
111         1.6358052987e-02
112         3.3733309103e-02
113         0.0000000000e+00
114         0.0000000000e+00
115         7.0775848707e-02
 Sym= B2
 Ene=         3.1187342972e+00
 Spin= Alpha
 Occup=         0.0000000000e+00
  1         0.0000000000e+00
  2         0.0000000000e+00
  3         0.0000000000e+00
  4         0.0000000000e+00
  5         0.0000000000e+00
  6         0.0000000000e+00
  7         8.7781805014e-02
  8         0.0000000000e+00
  9         0.0000000000e+00
 10         9.0394936154e-01
 11         0.0000000000e+00
 12         0.0000000000e+00
 13        -3.7963507264e+00
 14         0.0000000000e+00
 15         0.0000000000e+00
 16        -1.0843521213e+00
 17         0.0000000000e+00
 18         0.0000000000e+00
 19         0.0000000000e+00
 20        -1.8845657951e-02
 21         0.0000000000e+00
 22         0.0000000000e+00
 23         0.0000000000e+00
 24         0.0000000000e+00
 25         5.5317443053e-02
 26         0.0000000000e+00
 27         0.0000000000e+00
 28         0.0000000000e+00
 29         0.0000000000e+00
 30         1.3911555332e+00
 31         0.0000000000e+00
 32         0.0000000000e+00
 33         0.0000000000e+00
 34         0.0000000000e+00
 35        -2.4949649055e-02
 36         0.0000000000e+00
 37         0.0000000000e+00
 38         0.0000000000e+00
 39         4.7522120738e-02
 40         0.0000000000e+00
 41         0.0000000000e+00
 42         2.4122161244e-01
 43         0.0000000000e+00
 44         0.0000000000e+00
 45         0.0000000000e+00
 46        -4.1492907581e-01
 47         0.0000000000e+00
 48         0.0000000000e+00
 49        -3.4760108613e-02
 50         0.0000000000e+00
 51         0.0000000000e+00
 52         0.0000000000e+00
 53        -4.3278483729e-02
 54         0.0000000000e+00
 55         0.0000000000e+00
 56        -2.7427767092e-03
 57         1.0119562270e+00
 58         2.1537621198e+00
 59        -7.3774768535e-02
 60         0.0000000000e+00
 61         6.6846309058e-02
 62        -5.8952968669e-02
 63         0.0000000000e+00
 64        -7.3552547419e-01
 65         6.4282957045e-01
 66         0.0000000000e+00
 67        -2.9461222316e-01
 68         7.7827278479e-01
 69        -7.4567486256e-03
 70         0.0000000000e+00
 71        -2.3325865343e-02
 72        -8.0904592482e-02
 73         0.0000000000e+00
 74         2.3954787009e-01
 75         0.0000000000e+00
 76        -4.4002971092e-01
 77         5.1882502990e-01
 78         0.0000000000e+00
 79         1.7581741311e-02
 80         0.0000000000e+00
 81        -4.2454842684e-02
 82        -4.6544703720e-02
 83         0.0000000000e+00
 84         0.0000000000e+00
 85         2.1957564635e-02
 86         2.7427767092e-03
 87        -1.0119562270e+00
 88        -2.1537621198e+00
 89         7.3774768535e-02
 90         0.0000000000e+00
 91         6.6846309058e-02
 92         5.8952968669e-02
 93         0.0000000000e+00
 94        -7.3552547419e-01
 95        -6.4282957045e-01
 96         0.0000000000e+00
 97        -2.9461222316e-01
 98        -7.7827278479e-01
 99         7.4567486256e-03
100         0.0000000000e+00
101        -2.3325865343e-02
102         8.0904592482e-02
103         0.0000000000e+00
104        -2.3954787009e-01
105         0.0000000000e+00
106        -4.4002971092e-01
107        -5.1882502990e-01
108         0.0000000000e+00
109        -1.7581741311e-02
110         0.0000000000e+00
111        -4.2454842684e-02
112         4.6544703720e-02
113         0.0000000000e+00
114         0.0000000000e+00
115         2.1957564635e-02
 Sym= A1
 Ene=         3.4120011883e+00
 Spin= Alpha
 Occup=         0.0000000000e+00
  1         3.5307764949e-01
  2         7.4802132643e-01
  3         2.3787744228e+00
  4        -5.9527581303e+00
  5        -3.4042605832e+00
  6         0.0000000000e+00
  7         0.0000000000e+00
  8         4.1577540816e-03
  9         0.0000000000e+00
 10         0.0000000000e+00
 11         2.4473446654e-01
 12         0.0000000000e+00
 13         0.0000000000e+00
 14         1.3446616561e+00
 15         0.0000000000e+00
 16         0.0000000000e+00
 17         7.5682843276e-01
 18        -6.6493742415e-03
 19         0.0000000000e+00
 20         0.0000000000e+00
 21        -1.1824867906e-02
 22         0.0000000000e+00
 23         1.9838744896e-02
 24         0.0000000000e+00
 25         0.0000000000e+00
 26        -2.3019694629e-01
 27         0.0000000000e+00
 28         5.4439768924e-01
 29         0.0000000000e+00
 30         0.0000000000e+00
 31         9.7572534110e-01
 32         0.0000000000e+00
 33        -1.1086304516e-02
 34         0.0000000000e+00
 35         0.0000000000e+00
 36        -7.6817510309e-02
 37         0.0000000000e+00
 38         0.0000000000e+00
 39         0.0000000000e+00
 40        -1.0993858859e-01
 41         0.0000000000e+00
 42         0.0000000000e+00
 43         5.5836648448e-01
 44         0.0000000000e+00
 45         0.0000000000e+00
 46         0.0000000000e+00
 47         1.0258344443e-03
 48         0.0000000000e+00
 49         0.0000000000e+00
 50        -7.2551977097e-03
 51         0.0000000000e+00
 52         0.0000000000e+00
 53         0.0000000000e+00
 54        -1.7996106265e-02
 55         0.0000000000e+00
 56         4.1129352893e-02
 57        -1.8524888811e-01
 58         3.8005811397e+00
 59        -2.0955446632e-01
 60         0.0000000000e+00
 61         7.7721305174e-02
 62        -7.7152215824e-02
 63         0.0000000000e+00
 64        -5.6913719837e-01
 65         7.1804266945e-01
 66         0.0000000000e+00
 67        -1.2921360375e+00
 68         1.2172445127e+00
 69         6.7876076153e-03
 70         0.0000000000e+00
 71         1.2522737890e-02
 72         2.2342096682e-03
 73         0.0000000000e+00
 74         1.8982574044e-01
 75         0.0000000000e+00
 76        -8.1707734267e-01
 77        -3.4988330696e-01
 78         0.0000000000e+00
 79        -3.7848972977e-02
 80         0.0000000000e+00
 81        -9.5281875481e-02
 82        -9.5663097286e-02
 83         0.0000000000e+00
 84         0.0000000000e+00
 85         6.4567560621e-02
 86         4.1129352893e-02
 87        -1.8524888811e-01
 88         3.8005811397e+00
 89        -2.0955446632e-01
 90         0.0000000000e+00
 91        -7.7721305174e-02
 92        -7.7152215824e-02
 93         0.0000000000e+00
 94         5.6913719837e-01
 95         7.1804266945e-01
 96         0.0000000000e+00
 97         1.2921360375e+00
 98         1.2172445127e+00
 99         6.7876076153e-03
100         0.0000000000e+00
101        -1.2522737890e-02
102         2.2342096682e-03
103         0.0000000000e+00
104         1.8982574044e-01
105         0.0000000000e+00
106         8.1707734267e-01
107        -3.4988330696e-01
108         0.0000000000e+00
109        -3.7848972977e-02
110         0.0000000000e+00
111         9.5281875481e-02
112        -9.5663097286e-02
113         0.0000000000e+00
114         0.0000000000e+00
115        -6.4567560621e-02
 Sym= B1
 Ene=         3.4746982863e+00
 Spin= Alpha
 Occup=         0.0000000000e+00
  1         0.0000000000e+00
  2         0.0000000000e+00
  3         0.0000000000e+00
  4         0.0000000000e+00
  5         0.0000000000e+00
  6         1.4551008709e-02
  7         0.0000000000e+00
  8         0.0000000000e+00
  9         8.2906529540e-02
 10         0.0000000000e+00
 11         0.0000000000e+00
 12        -1.9496853307e-01
 13         0.0000000000e+00
 14         0.0000000000e+00
 15         1.1058191656e-01
 16         0.0000000000e+00
 17         0.0000000000e+00
 18         0.0000000000e+00
 19        -1.0646872914e-02
 20         0.0000000000e+00
 21         0.0000000000e+00
 22         0.0000000000e+00
 23         0.0000000000e+00
 24         3.7480294132e-01
 25         0.0000000000e+00
 26         0.0000000000e+00
 27         0.0000000000e+00
 28         0.0000000000e+00
 29         4.2777525800e-02
 30         0.0000000000e+00
 31         0.0000000000e+00
 32         0.0000000000e+00
 33         0.0000000000e+00
 34         6.7426221929e-02
 35         0.0000000000e+00
 36         0.0000000000e+00
 37         0.0000000000e+00
 38         3.6950497045e-02
 39         0.0000000000e+00
 40         0.0000000000e+00
 41        -9.2222315006e-01
 42         0.0000000000e+00
 43         0.0000000000e+00
 44         0.0000000000e+00
 45        -5.6056172783e-01
 46         0.0000000000e+00
 47         0.0000000000e+00
 48         3.0527659964e-04
 49         0.0000000000e+00
 50         0.0000000000e+00
 51         0.0000000000e+00
 52         2.2105871154e-02
 53         0.0000000000e+00
 54         0.0000000000e+00
 55         0.0000000000e+00
 56         0.0000000000e+00
 57         0.0000000000e+00
 58         0.0000000000e+00
 59         0.0000000000e+00
 60         2.5928598945e-03
 61         0.0000000000e+00
 62         0.0000000000e+00
 63         6.3428687774e-02
 64         0.0000000000e+00
 65         0.0000000000e+00
 66        -6.7379261577e-02
 67         0.0000000000e+00
 68         0.0000000000e+00
 69         0.0000000000e+00
 70         2.2849323675e-02
 71         0.0000000000e+00
 72         0.0000000000e+00
 73         5.7232008554e-02
 74         0.0000000000e+00
 75        -3.1128744141e-01
 76         0.0000000000e+00
 77         0.0000000000e+00
 78        -3.4122207181e-01
 79         0.0000000000e+00
 80         2.6174883073e-02
 81         0.0000000000e+00
 82         0.0000000000e+00
 83         1.6362552316e-02
 84         6.7453201641e-02
 85         0.0000000000e+00
 86         0.0000000000e+00
 87         0.0000000000e+00
 88         0.0000000000e+00
 89         0.0000000000e+00
 90         2.5928598945e-03
 91         0.0000000000e+00
 92         0.0000000000e+00
 93         6.3428687774e-02
 94         0.0000000000e+00
 95         0.0000000000e+00
 96        -6.7379261577e-02
 97         0.0000000000e+00
 98         0.0000000000e+00
 99         0.0000000000e+00
100         2.2849323675e-02
101         0.0000000000e+00
102         0.0000000000e+00
103        -5.7232008554e-02
104         0.0000000000e+00
105        -3.1128744141e-01
106         0.0000000000e+00
107         0.0000000000e+00
108         3.4122207181e-01
109         0.0000000000e+00
110         2.6174883073e-02
111         0.0000000000e+00
112         0.0000000000e+00
113        -1.6362552316e-02
114         6.7453201641e-02
115         0.0000000000e+00
 Sym= A2
 Ene=         3.6837729928e+00
 Spin= Alpha
 Occup=         0.0000000000e+00
  1         0.0000000000e+00
  2         0.0000000000e+00
  3         0.0000000000e+00
  4         0.0000000000e+00
  5         0.0000000000e+00
  6         0.0000000000e+00
  7         0.0000000000e+00
  8         0.0000000000e+00
  9         0.0000000000e+00
 10         0.0000000000e+00
 11         0.0000000000e+00
 12         0.0000000000e+00
 13         0.0000000000e+00
 14         0.0000000000e+00
 15         0.0000000000e+00
 16         0.0000000000e+00
 17         0.0000000000e+00
 18         0.0000000000e+00
 19         0.0000000000e+00
 20         0.0000000000e+00
 21         0.0000000000e+00
 22         1.1123777007e-02
 23         0.0000000000e+00
 24         0.0000000000e+00
 25         0.0000000000e+00
 26         0.0000000000e+00
 27        -9.5748652734e-01
 28         0.0000000000e+00
 29         0.0000000000e+00
 30         0.0000000000e+00
 31         0.0000000000e+00
 32         1.6988373265e+00
 33         0.0000000000e+00
 34         0.0000000000e+00
 35         0.0000000000e+00
 36         0.0000000000e+00
 37         6.4791619164e-02
 38         0.0000000000e+00
 39         0.0000000000e+00
 40         0.0000000000e+00
 41         0.0000000000e+00
 42         0.0000000000e+00
 43         0.0000000000e+00
 44        -9.9973870868e-01
 45         0.0000000000e+00
 46         0.0000000000e+00
 47         0.0000000000e+00
 48         0.0000000000e+00
 49         0.0000000000e+00
 50         0.0000000000e+00
 51         4.8053303700e-02
 52         0.0000000000e+00
 53         0.0000000000e+00
 54         0.0000000000e+00
 55        -5.7923609260e-02
 56         0.0000000000e+00
 57         0.0000000000e+00
 58         0.0000000000e+00
 59         0.0000000000e+00
 60         5.3274958092e-02
 61         0.0000000000e+00
 62         0.0000000000e+00
 63        -5.4469848236e-01
 64         0.0000000000e+00
 65         0.0000000000e+00
 66        -5.2312552538e-01
 67         0.0000000000e+00
 68         0.0000000000e+00
 69         0.0000000000e+00
 70        -5.8206809285e-02
 71         0.0000000000e+00
 72         0.0000000000e+00
 73         5.8986230998e-02
 74         0.0000000000e+00
 75        -2.6580111338e-01
 76         0.0000000000e+00
 77         0.0000000000e+00
 78         3.1417322680e-01
 79         0.0000000000e+00
 80        -7.8937755149e-02
 81         0.0000000000e+00
 82         0.0000000000e+00
 83         1.5677410265e-01
 84         1.2833166253e-01
 85         0.0000000000e+00
 86         0.0000000000e+00
 87         0.0000000000e+00
 88         0.0000000000e+00
 89         0.0000000000e+00
 90        -5.3274958092e-02
 91         0.0000000000e+00
 92         0.0000000000e+00
 93         5.4469848236e-01
 94         0.0000000000e+00
 95         0.0000000000e+00
 96         5.2312552538e-01
 97         0.0000000000e+00
 98         0.0000000000e+00
 99         0.0000000000e+00
100         5.8206809285e-02
101         0.0000000000e+00
102         0.0000000000e+00
103         5.8986230998e-02
104         0.0000000000e+00
105         2.6580111338e-01
106         0.0000000000e+00
107         0.0000000000e+00
108         3.1417322680e-01
109         0.0000000000e+00
110         7.8937755149e-02
111         0.0000000000e+00
112         0.0000000000e+00
113         1.5677410265e-01
114        -1.2833166253e-01
115         0.0000000000e+00
 Sym= B1
 Ene=         3.7405818474e+00
 Spin= Alpha
 Occup=         0.0000000000e+00
  1         0.0000000000e+00
  2         0.0000000000e+00
  3         0.0000000000e+00
  4         0.0000000000e+00
  5         0.0000000000e+00
  6         1.6520128031e-03
  7         0.0000000000e+00
  8         0.0000000000e+00
  9         2.6312679015e-01
 10         0.0000000000e+00
 11         0.0000000000e+00
 12        -1.3923182219e+00
 13         0.0000000000e+00
 14         0.0000000000e+00
 15        -6.0098884287e-01
 16         0.0000000000e+00
 17         0.0000000000e+00
 18         0.0000000000e+00
 19         2.2926281146e-02
 20         0.0000000000e+00
 21         0.0000000000e+00
 22         0.0000000000e+00
 23         0.0000000000e+00
 24        -9.7612760904e-01
 25         0.0000000000e+00
 26         0.0000000000e+00
 27         0.0000000000e+00
 28         0.0000000000e+00
 29         1.7108238603e+00
 30         0.0000000000e+00
 31         0.0000000000e+00
 32         0.0000000000e+00
 33         0.0000000000e+00
 34         5.5122702608e-02
 35         0.0000000000e+00
 36         0.0000000000e+00
 37         0.0000000000e+00
 38        -4.1463990459e-02
 39         0.0000000000e+00
 40         0.0000000000e+00
 41        -7.1556416976e-01
 42         0.0000000000e+00
 43         0.0000000000e+00
 44         0.0000000000e+00
 45         7.0511742209e-01
 46         0.0000000000e+00
 47         0.0000000000e+00
 48        -3.5592724147e-03
 49         0.0000000000e+00
 50         0.0000000000e+00
 51         0.0000000000e+00
 52        -7.3686828974e-02
 53         0.0000000000e+00
 54         0.0000000000e+00
 55         0.0000000000e+00
 56         0.0000000000e+00
 57         0.0000000000e+00
 58         0.0000000000e+00
 59         0.0000000000e+00
 60        -5.5808141437e-02
 61         0.0000000000e+00
 62         0.0000000000e+00
 63         5.6677084275e-01
 64         0.0000000000e+00
 65         0.0000000000e+00
 66         6.9656650413e-01
 67         0.0000000000e+00
 68         0.0000000000e+00
 69         0.0000000000e+00
 70         2.9447989277e-02
 71         0.0000000000e+00
 72         0.0000000000e+00
 73        -3.0613470357e-02
 74         0.0000000000e+00
 75         1.5389579334e-01
 76         0.0000000000e+00
 77         0.0000000000e+00
 78        -6.5458150836e-01
 79         0.0000000000e+00
 80        -5.9271021748e-03
 81         0.0000000000e+00
 82         0.0000000000e+00
 83        -1.3449612340e-01
 84        -1.1083416888e-01
 85         0.0000000000e+00
 86         0.0000000000e+00
 87         0.0000000000e+00
 88         0.0000000000e+00
 89         0.0000000000e+00
 90        -5.5808141437e-02
 91         0.0000000000e+00
 92         0.0000000000e+00
 93         5.6677084275e-01
 94         0.0000000000e+00
 95         0.0000000000e+00
 96         6.9656650413e-01
 97         0.0000000000e+00
 98         0.0000000000e+00
 99         0.0000000000e+00
100         2.9447989277e-02
101         0.0000000000e+00
102         0.0000000000e+00
103         3.0613470357e-02
104         0.0000000000e+00
105         1.5389579334e-01
106         0.0000000000e+00
107         0.0000000000e+00
108         6.5458150836e-01
109         0.0000000000e+00
110        -5.9271021748e-03
111         0.0000000000e+00
112         0.0000000000e+00
113         1.3449612340e-01
114        -1.1083416888e-01
115         0.0000000000e+00
 Sym= A1
 Ene=         3.8143491928e+00
 Spin= Alpha
 Occup=         0.0000000000e+00
  1         6.7626210018e-02
  2         1.3321542897e-01
  3         6.2223650458e-01
  4        -1.7556562180e+00
  5        -1.7450711859e+00
  6         0.0000000000e+00
  7         0.0000000000e+00
  8        -1.4859328501e-02
  9         0.0000000000e+00
 10         0.0000000000e+00
 11        -2.8057182990e-01
 12         0.0000000000e+00
 13         0.0000000000e+00
 14         2.2669567483e+00
 15         0.0000000000e+00
 16         0.0000000000e+00
 17         1.0420460807e+00
 18        -7.9307651897e-03
 19         0.0000000000e+00
 20         0.0000000000e+00
 21        -4.9976190877e-03
 22         0.0000000000e+00
 23         7.6855877869e-01
 24         0.0000000000e+00
 25         0.0000000000e+00
 26         1.9874774409e-01
 27         0.0000000000e+00
 28        -2.2129389099e+00
 29         0.0000000000e+00
 30         0.0000000000e+00
 31        -4.6606469892e-01
 32         0.0000000000e+00
 33        -7.9515767377e-02
 34         0.0000000000e+00
 35         0.0000000000e+00
 36        -7.9373056519e-03
 37         0.0000000000e+00
 38         0.0000000000e+00
 39         0.0000000000e+00
 40         1.0011340701e+00
 41         0.0000000000e+00
 42         0.0000000000e+00
 43        -1.7857811041e-01
 44         0.0000000000e+00
 45         0.0000000000e+00
 46         0.0000000000e+00
 47         2.1186652790e-02
 48         0.0000000000e+00
 49         0.0000000000e+00
 50         5.5161350747e-02
 51         0.0000000000e+00
 52         0.0000000000e+00
 53         0.0000000000e+00
 54         2.3292644241e-02
 55         0.0000000000e+00
 56         6.2144615760e-02
 57         1.0969710523e-01
 58         1.6326916631e+00
 59        -1.3498159398e-01
 60         0.0000000000e+00
 61         1.1870801629e-01
 62        -1.2201025063e-03
 63         0.0000000000e+00
 64        -1.0685358319e+00
 65        -2.5121716492e-01
 66         0.0000000000e+00
 67        -7.1788847814e-01
 68        -3.7745589783e-01
 69        -4.5642252647e-02
 70         0.0000000000e+00
 71        -1.3244395693e-02
 72        -3.6786469820e-03
 73         0.0000000000e+00
 74        -4.0199527149e-01
 75         0.0000000000e+00
 76         1.4636599007e-01
 77        -6.1163446253e-01
 78         0.0000000000e+00
 79        -9.1451558521e-02
 80         0.0000000000e+00
 81         1.1938117110e-01
 82        -6.4433891765e-02
 83         0.0000000000e+00
 84         0.0000000000e+00
 85         1.1154623785e-01
 86         6.2144615760e-02
 87         1.0969710523e-01
 88         1.6326916631e+00
 89        -1.3498159398e-01
 90         0.0000000000e+00
 91        -1.1870801629e-01
 92        -1.2201025063e-03
 93         0.0000000000e+00
 94         1.0685358319e+00
 95        -2.5121716492e-01
 96         0.0000000000e+00
 97         7.1788847814e-01
 98        -3.7745589783e-01
 99        -4.5642252647e-02
100         0.0000000000e+00
101         1.3244395693e-02
102        -3.6786469820e-03
103         0.0000000000e+00
104        -4.0199527149e-01
105         0.0000000000e+00
106        -1.4636599007e-01
107        -6.1163446253e-01
108         0.0000000000e+00
109        -9.1451558521e-02
110         0.0000000000e+00
111        -1.1938117110e-01
112        -6.4433891765e-02
113         0.0000000000e+00
114         0.0000000000e+00
115        -1.1154623785e-01
 Sym= B2
 Ene=         3.9723381096e+00
 Spin= Alpha
 Occup=         0.0000000000e+00
  1         0.0000000000e+00
  2         0.0000000000e+00
  3         0.0000000000e+00
  4         0.0000000000e+00
  5         0.0000000000e+00
  6         0.0000000000e+00
  7         1.1367377552e-01
  8         0.0000000000e+00
  9         0.0000000000e+00
 10         1.0799791332e+00
 11         0.0000000000e+00
 12         0.0000000000e+00
 13        -3.3932757057e+00
 14         0.0000000000e+00
 15         0.0000000000e+00
 16        -1.0545278953e+00
 17         0.0000000000e+00
 18         0.0000000000e+00
 19         0.0000000000e+00
 20        -1.3408265303e-02
 21         0.0000000000e+00
 22         0.0000000000e+00
 23         0.0000000000e+00
 24         0.0000000000e+00
 25        -2.4425664443e-01
 26         0.0000000000e+00
 27         0.0000000000e+00
 28         0.0000000000e+00
 29         0.0000000000e+00
 30         2.2602190591e+00
 31         0.0000000000e+00
 32         0.0000000000e+00
 33         0.0000000000e+00
 34         0.0000000000e+00
 35         1.4757364962e-02
 36         0.0000000000e+00
 37         0.0000000000e+00
 38         0.0000000000e+00
 39        -7.7838465056e-02
 40         0.0000000000e+00
 41         0.0000000000e+00
 42        -2.6924435057e-01
 43         0.0000000000e+00
 44         0.0000000000e+00
 45         0.0000000000e+00
 46         1.2986551202e+00
 47         0.0000000000e+00
 48         0.0000000000e+00
 49        -3.3313628513e-02
 50         0.0000000000e+00
 51         0.0000000000e+00
 52         0.0000000000e+00
 53        -6.5281364415e-02
 54         0.0000000000e+00
 55         0.0000000000e+00
 56        -5.6938052640e-02
 57         2.3610821669e+00
 58         3.8444593077e-01
 59         5.8545189339e-02
 60         0.0000000000e+00
 61        -1.0127682979e-02
 62        -1.5395828092e-02
 63         0.0000000000e+00
 64        -6.3468415711e-01
 65         7.2263817886e-01
 66         0.0000000000e+00
 67         5.0219473548e-01
 68         6.7714694364e-02
 69        -2.7103152547e-02
 70         0.0000000000e+00
 71        -1.3832413425e-01
 72        -9.4086069644e-02
 73         0.0000000000e+00
 74         3.9074851222e-01
 75         0.0000000000e+00
 76         2.7482893682e-01
 77         5.0135723446e-01
 78         0.0000000000e+00
 79        -4.2030215197e-02
 80         0.0000000000e+00
 81        -6.6070379529e-02
 82        -2.6694168599e-03
 83         0.0000000000e+00
 84         0.0000000000e+00
 85         4.0742502565e-02
 86         5.6938052640e-02
 87        -2.3610821669e+00
 88        -3.8444593077e-01
 89        -5.8545189339e-02
 90         0.0000000000e+00
 91        -1.0127682979e-02
 92         1.5395828092e-02
 93         0.0000000000e+00
 94        -6.3468415711e-01
 95        -7.2263817886e-01
 96         0.0000000000e+00
 97         5.0219473548e-01
 98        -6.7714694364e-02
 99         2.7103152547e-02
100         0.0000000000e+00
101        -1.3832413425e-01
102         9.4086069644e-02
103         0.0000000000e+00
104        -3.9074851222e-01
105         0.0000000000e+00
106         2.7482893682e-01
107        -5.0135723446e-01
108         0.0000000000e+00
109         4.2030215197e-02
110         0.0000000000e+00
111        -6.6070379529e-02
112         2.6694168599e-03
113         0.0000000000e+00
114         0.0000000000e+00
115         4.0742502565e-02
 Sym= A1
 Ene=         3.9877521227e+00
 Spin= Alpha
 Occup=         0.0000000000e+00
  1         1.3052548677e-03
  2         6.7173062583e-04
  3        -2.4615348458e-01
  4         1.7704455575e+00
  5        -2.4798715659e+00
  6         0.0000000000e+00
  7         0.0000000000e+00
  8         3.4685143352e-03
  9         0.0000000000e+00
 10         0.0000000000e+00
 11         1.0148648293e-02
 12         0.0000000000e+00
 13         0.0000000000e+00
 14        -1.1773093191e+00
 15         0.0000000000e+00
 16         0.0000000000e+00
 17         6.4720473095e-01
 18        -2.5380258386e-02
 19         0.0000000000e+00
 20         0.0000000000e+00
 21         2.8767951667e-02
 22         0.0000000000e+00
 23         8.8504813584e-01
 24         0.0000000000e+00
 25         0.0000000000e+00
 26        -6.3091730909e-01
 27         0.0000000000e+00
 28         6.4076676735e-01
 29         0.0000000000e+00
 30         0.0000000000e+00
 31         1.3532748572e+00
 32         0.0000000000e+00
 33         4.5867037309e-02
 34         0.0000000000e+00
 35         0.0000000000e+00
 36         3.7199364321e-02
 37         0.0000000000e+00
 38         0.0000000000e+00
 39         0.0000000000e+00
 40        -6.8233059550e-01
 41         0.0000000000e+00
 42         0.0000000000e+00
 43        -2.6567658431e-01
 44         0.0000000000e+00
 45         0.0000000000e+00
 46         0.0000000000e+00
 47         8.0836204396e-03
 48         0.0000000000e+00
 49         0.0000000000e+00
 50         1.9529196613e-02
 51         0.0000000000e+00
 52         0.0000000000e+00
 53         0.0000000000e+00
 54        -9.4421835036e-03
 55         0.0000000000e+00
 56        -1.1346342514e-01
 57         3.4031579913e-01
 58         5.5543793400e-01
 59         1.8849611205e-01
 60         0.0000000000e+00
 61        -1.3913062920e-01
 62         1.8331715158e-02
 63         0.0000000000e+00
 64         9.0262785622e-01
 65         3.6933879465e-01
 66         0.0000000000e+00
 67        -9.9702210038e-02
 68         2.8716957017e-01
 69        -3.4371618317e-02
 70         0.0000000000e+00
 71         6.0802369951e-03
 72        -7.5118878030e-02
 73         0.0000000000e+00
 74         5.6821783128e-01
 75         0.0000000000e+00
 76         1.9033696865e-02
 77         5.8083666611e-01
 78         0.0000000000e+00
 79         8.3309257220e-02
 80         0.0000000000e+00
 81         5.0816975518e-02
 82         5.6237069844e-02
 83         0.0000000000e+00
 84         0.0000000000e+00
 85         1.0539178849e-02
 86        -1.1346342514e-01
 87         3.4031579913e-01
 88         5.5543793400e-01
 89         1.8849611205e-01
 90         0.0000000000e+00
 91         1.3913062920e-01
 92         1.8331715158e-02
 93         0.0000000000e+00
 94        -9.0262785622e-01
 95         3.6933879465e-01
 96         0.0000000000e+00
 97         9.9702210038e-02
 98         2.8716957017e-01
 99        -3.4371618317e-02
100         0.0000000000e+00
101        -6.0802369951e-03
102        -7.5118878030e-02
103         0.0000000000e+00
104         5.6821783128e-01
105         0.0000000000e+00
106        -1.9033696865e-02
107         5.8083666611e-01
108         0.0000000000e+00
109         8.3309257220e-02
110         0.0000000000e+00
111        -5.0816975518e-02
112         5.6237069844e-02
113         0.0000000000e+00
114         0.0000000000e+00
115        -1.0539178849e-02
 Sym= A1
 Ene=         4.0709751278e+00
 Spin= Alpha
 Occup=         0.0000000000e+00
  1         1.9995754947e-01
  2         4.1573481478e-01
  3         1.1326935209e+00
  4        -2.0384315813e-01
  5        -1.7816183437e+00
  6         0.0000000000e+00
  7         0.0000000000e+00
  8        -9.6202428062e-02
  9         0.0000000000e+00
 10         0.0000000000e+00
 11        -6.5642101506e-01
 12         0.0000000000e+00
 13         0.0000000000e+00
 14         1.8247026195e+00
 15         0.0000000000e+00
 16         0.0000000000e+00
 17         6.6154007425e-01
 18        -1.7772386341e-03
 19         0.0000000000e+00
 20         0.0000000000e+00
 21         6.6676730334e-03
 22         0.0000000000e+00
 23        -2.2149219771e-01
 24         0.0000000000e+00
 25         0.0000000000e+00
 26        -7.6529082837e-01
 27         0.0000000000e+00
 28        -6.8098706743e-01
 29         0.0000000000e+00
 30         0.0000000000e+00
 31         1.0708839775e+00
 32         0.0000000000e+00
 33        -8.2644293506e-04
 34         0.0000000000e+00
 35         0.0000000000e+00
 36         5.9779522323e-02
 37         0.0000000000e+00
 38         0.0000000000e+00
 39         0.0000000000e+00
 40        -1.1747547827e-02
 41         0.0000000000e+00
 42         0.0000000000e+00
 43        -9.9106792555e-01
 44         0.0000000000e+00
 45         0.0000000000e+00
 46         0.0000000000e+00
 47         2.9352574924e-02
 48         0.0000000000e+00
 49         0.0000000000e+00
 50         3.2578161798e-02
 51         0.0000000000e+00
 52         0.0000000000e+00
 53         0.0000000000e+00
 54        -3.1862545483e-02
 55         0.0000000000e+00
 56        -8.4940826924e-02
 57         1.3486340966e+00
 58         2.9963204655e-01
 59         6.2800951300e-02
 60         0.0000000000e+00
 61        -4.2059858136e-02
 62         7.4549956766e-02
 63         0.0000000000e+00
 64        -4.8430913507e-01
 65        -1.9586590828e-01
 66         0.0000000000e+00
 67         3.8944058597e-02
 68        -2.5774653754e-01
 69         6.0611741166e-02
 70         0.0000000000e+00
 71        -1.4978399440e-01
 72        -4.3502754018e-02
 73         0.0000000000e+00
 74        -3.3036338569e-01
 75         0.0000000000e+00
 76         6.4264123523e-01
 77        -3.6426919122e-02
 78         0.0000000000e+00
 79         1.1104924304e-02
 80         0.0000000000e+00
 81        -6.6587330048e-02
 82        -6.3972404252e-02
 83         0.0000000000e+00
 84         0.0000000000e+00
 85        -4.3514915379e-03
 86        -8.4940826924e-02
 87         1.3486340966e+00
 88         2.9963204655e-01
 89         6.2800951300e-02
 90         0.0000000000e+00
 91         4.2059858136e-02
 92         7.4549956766e-02
 93         0.0000000000e+00
 94         4.8430913507e-01
 95        -1.9586590828e-01
 96         0.0000000000e+00
 97        -3.8944058597e-02
 98        -2.5774653754e-01
 99         6.0611741166e-02
100         0.0000000000e+00
101         1.4978399440e-01
102        -4.3502754018e-02
103         0.0000000000e+00
104        -3.3036338569e-01
105         0.0000000000e+00
106        -6.4264123523e-01
107        -3.6426919122e-02
108         0.0000000000e+00
109         1.1104924304e-02
110         0.0000000000e+00
111         6.6587330048e-02
112        -6.3972404252e-02
113         0.0000000000e+00
114         0.0000000000e+00
115         4.3514915379e-03
 Sym= B1
 Ene=         4.1830534182e+00
 Spin= Alpha
 Occup=         0.0000000000e+00
  1         0.0000000000e+00
  2         0.0000000000e+00
  3         0.0000000000e+00
  4         0.0000000000e+00
  5         0.0000000000e+00
  6         5.9666858580e-02
  7         0.0000000000e+00
  8         0.0000000000e+00
  9         5.3703668500e-01
 10         0.0000000000e+00
 11         0.0000000000e+00
 12        -2.4211349663e+00
 13         0.0000000000e+00
 14         0.0000000000e+00
 15        -3.0056600724e-01
 16         0.0000000000e+00
 17         0.0000000000e+00
 18         0.0000000000e+00
 19        -2.6190325050e-02
 20         0.0000000000e+00
 21         0.0000000000e+00
 22         0.0000000000e+00
 23         0.0000000000e+00
 24         6.6473979508e-01
 25         0.0000000000e+00
 26         0.0000000000e+00
 27         0.0000000000e+00
 28         0.0000000000e+00
 29         9.2562555572e-01
 30         0.0000000000e+00
 31         0.0000000000e+00
 32         0.0000000000e+00
 33         0.0000000000e+00
 34         1.1369314782e-02
 35         0.0000000000e+00
 36         0.0000000000e+00
 37         0.0000000000e+00
 38        -8.6473762936e-02
 39         0.0000000000e+00
 40         0.0000000000e+00
 41        -2.6053585593e-01
 42         0.0000000000e+00
 43         0.0000000000e+00
 44         0.0000000000e+00
 45         1.4392130139e+00
 46         0.0000000000e+00
 47         0.0000000000e+00
 48         5.2155119436e-04
 49         0.0000000000e+00
 50         0.0000000000e+00
 51         0.0000000000e+00
 52        -2.4201868718e-02
 53         0.0000000000e+00
 54         0.0000000000e+00
 55         0.0000000000e+00
 56         0.0000000000e+00
 57         0.0000000000e+00
 58         0.0000000000e+00
 59         0.0000000000e+00
 60        -9.9028684102e-02
 61         0.0000000000e+00
 62         0.0000000000e+00
 63         1.1365729959e+00
 64         0.0000000000e+00
 65         0.0000000000e+00
 66         5.0149392981e-01
 67         0.0000000000e+00
 68         0.0000000000e+00
 69         0.0000000000e+00
 70        -3.8014079265e-02
 71         0.0000000000e+00
 72         0.0000000000e+00
 73         4.2198402828e-02
 74         0.0000000000e+00
 75         7.3302142209e-01
 76         0.0000000000e+00
 77         0.0000000000e+00
 78        -9.0739064087e-01
 79         0.0000000000e+00
 80        -1.8771112178e-02
 81         0.0000000000e+00
 82         0.0000000000e+00
 83        -9.9433642841e-02
 84         1.6072365596e-03
 85         0.0000000000e+00
 86         0.0000000000e+00
 87         0.0000000000e+00
 88         0.0000000000e+00
 89         0.0000000000e+00
 90        -9.9028684102e-02
 91         0.0000000000e+00
 92         0.0000000000e+00
 93         1.1365729959e+00
 94         0.0000000000e+00
 95         0.0000000000e+00
 96         5.0149392981e-01
 97         0.0000000000e+00
 98         0.0000000000e+00
 99         0.0000000000e+00
100        -3.8014079265e-02
101         0.0000000000e+00
102         0.0000000000e+00
103        -4.2198402828e-02
104         0.0000000000e+00
105         7.3302142209e-01
106         0.0000000000e+00
107         0.0000000000e+00
108         9.0739064087e-01
109         0.0000000000e+00
110        -1.8771112178e-02
111         0.0000000000e+00
112         0.0000000000e+00
113         9.9433642841e-02
114         1.6072365596e-03
115         0.0000000000e+00
 Sym= A2
 Ene=         4.3254628847e+00
 Spin= Alpha
 Occup=         0.0000000000e+00
  1         0.0000000000e+00
  2         0.0000000000e+00
  3         0.0000000000e+00
  4         0.0000000000e+00
  5         0.0000000000e+00
  6         0.0000000000e+00
  7         0.0000000000e+00
  8         0.0000000000e+00
  9         0.0000000000e+00
 10         0.0000000000e+00
 11         0.0000000000e+00
 12         0.0000000000e+00
 13         0.0000000000e+00
 14         0.0000000000e+00
 15         0.0000000000e+00
 16         0.0000000000e+00
 17         0.0000000000e+00
 18         0.0000000000e+00
 19         0.0000000000e+00
 20         0.0000000000e+00
 21         0.0000000000e+00
 22         2.2230082929e-02
 23         0.0000000000e+00
 24         0.0000000000e+00
 25         0.0000000000e+00
 26         0.0000000000e+00
 27        -6.6360120677e-01
 28         0.0000000000e+00
 29         0.0000000000e+00
 30         0.0000000000e+00
 31         0.0000000000e+00
 32        -1.5663442815e+00
 33         0.0000000000e+00
 34         0.0000000000e+00
 35         0.0000000000e+00
 36         0.0000000000e+00
 37        -8.9640778455e-02
 38         0.0000000000e+00
 39         0.0000000000e+00
 40         0.0000000000e+00
 41         0.0000000000e+00
 42         0.0000000000e+00
 43         0.0000000000e+00
 44         1.6425115342e+00
 45         0.0000000000e+00
 46         0.0000000000e+00
 47         0.0000000000e+00
 48         0.0000000000e+00
 49         0.0000000000e+00
 50         0.0000000000e+00
 51        -1.1836478334e-02
 52         0.0000000000e+00
 53         0.0000000000e+00
 54         0.0000000000e+00
 55        -2.1928644011e-04
 56         0.0000000000e+00
 57         0.0000000000e+00
 58         0.0000000000e+00
 59         0.0000000000e+00
 60        -1.1132799320e-01
 61         0.0000000000e+00
 62         0.0000000000e+00
 63         1.2197181366e+00
 64         0.0000000000e+00
 65         0.0000000000e+00
 66         5.0617652993e-01
 67         0.0000000000e+00
 68         0.0000000000e+00
 69         0.0000000000e+00
 70        -3.1035327426e-02
 71         0.0000000000e+00
 72         0.0000000000e+00
 73         4.9913341921e-02
 74         0.0000000000e+00
 75         6.6986562636e-01
 76         0.0000000000e+00
 77         0.0000000000e+00
 78        -9.6195925568e-01
 79         0.0000000000e+00
 80         5.4926730951e-02
 81         0.0000000000e+00
 82         0.0000000000e+00
 83         4.1643576978e-03
 84        -8.1828690324e-02
 85         0.0000000000e+00
 86         0.0000000000e+00
 87         0.0000000000e+00
 88         0.0000000000e+00
 89         0.0000000000e+00
 90         1.1132799320e-01
 91         0.0000000000e+00
 92         0.0000000000e+00
 93        -1.2197181366e+00
 94         0.0000000000e+00
 95         0.0000000000e+00
 96        -5.0617652993e-01
 97         0.0000000000e+00
 98         0.0000000000e+00
 99         0.0000000000e+00
100         3.1035327426e-02
101         0.0000000000e+00
102         0.0000000000e+00
103         4.9913341921e-02
104         0.0000000000e+00
105        -6.6986562636e-01
106         0.0000000000e+00
107         0.0000000000e+00
108        -9.6195925568e-01
109         0.0000000000e+00
110        -5.4926730951e-02
111         0.0000000000e+00
112         0.0000000000e+00
113         4.1643576978e-03
114         8.1828690324e-02
115         0.0000000000e+00
 Sym= B2
 Ene=         4.4505394793e+00
 Spin= Alpha
 Occup=         0.0000000000e+00
  1         0.0000000000e+00
  2         0.0000000000e+00
  3         0.0000000000e+00
  4         0.0000000000e+00
  5         0.0000000000e+00
  6         0.0000000000e+00
  7         2.8493326102e-02
  8         0.0000000000e+00
  9         0.0000000000e+00
 10         1.3264914607e-01
 11         0.0000000000e+00
 12         0.0000000000e+00
 13         2.2006090601e+00
 14         0.0000000000e+00
 15         0.0000000000e+00
 16        -2.4227560556e-01
 17         0.0000000000e+00
 18         0.0000000000e+00
 19         0.0000000000e+00
 20         2.3924876900e-02
 21         0.0000000000e+00
 22         0.0000000000e+00
 23         0.0000000000e+00
 24         0.0000000000e+00
 25        -8.1532213366e-01
 26         0.0000000000e+00
 27         0.0000000000e+00
 28         0.0000000000e+00
 29         0.0000000000e+00
 30         1.5284956631e+00
 31         0.0000000000e+00
 32         0.0000000000e+00
 33         0.0000000000e+00
 34         0.0000000000e+00
 35         1.1582467705e-01
 36         0.0000000000e+00
 37         0.0000000000e+00
 38         0.0000000000e+00
 39         2.1622678492e-02
 40         0.0000000000e+00
 41         0.0000000000e+00
 42        -1.9798672983e+00
 43         0.0000000000e+00
 44         0.0000000000e+00
 45         0.0000000000e+00
 46        -7.3242170812e-01
 47         0.0000000000e+00
 48         0.0000000000e+00
 49         8.5135691107e-02
 50         0.0000000000e+00
 51         0.0000000000e+00
 52         0.0000000000e+00
 53         6.5428605208e-03
 54         0.0000000000e+00
 55         0.0000000000e+00
 56        -1.2551759361e-01
 57         5.3464048455e-01
 58        -1.0524326136e+00
 59         2.3775347192e-01
 60         0.0000000000e+00
 61        -4.9645288494e-02
 62         1.9103529219e-01
 63         0.0000000000e+00
 64        -1.7526327605e-01
 65        -1.4935484132e+00
 66         0.0000000000e+00
 67         2.0788949961e-01
 68        -5.9976232891e-01
 69        -3.0222289034e-03
 70         0.0000000000e+00
 71        -1.5281557925e-02
 72        -4.3788711924e-02
 73         0.0000000000e+00
 74        -1.0454604967e+00
 75         0.0000000000e+00
 76         7.5414391573e-01
 77        -4.6367631569e-02
 78         0.0000000000e+00
 79        -6.2253631533e-03
 80         0.0000000000e+00
 81         2.5027609695e-01
 82         7.1966782556e-02
 83         0.0000000000e+00
 84         0.0000000000e+00
 85         4.9893145479e-02
 86         1.2551759361e-01
 87        -5.3464048455e-01
 88         1.0524326136e+00
 89        -2.3775347192e-01
 90         0.0000000000e+00
 91        -4.9645288494e-02
 92        -1.9103529219e-01
 93         0.0000000000e+00
 94        -1.7526327605e-01
 95         1.4935484132e+00
 96         0.0000000000e+00
 97         2.0788949961e-01
 98         5.9976232891e-01
 99         3.0222289034e-03
100         0.0000000000e+00
101        -1.5281557925e-02
102         4.3788711924e-02
103         0.0000000000e+00
104         1.0454604967e+00
105         0.0000000000e+00
106         7.5414391573e-01
107         4.6367631569e-02
108         0.0000000000e+00
109         6.2253631533e-03
110         0.0000000000e+00
111         2.5027609695e-01
112        -7.1966782556e-02
113         0.0000000000e+00
114         0.0000000000e+00
115         4.9893145479e-02
 Sym= B2
 Ene=         4.7985742956e+00
 Spin= Alpha
 Occup=         0.0000000000e+00
  1         0.0000000000e+00
  2         0.0000000000e+00
  3         0.0000000000e+00
  4         0.0000000000e+00
  5         0.0000000000e+00
  6         0.0000000000e+00
  7         1.1337650481e-02
  8         0.0000000000e+00
  9         0.0000000000e+00
 10         3.9680485610e-02
 11         0.0000000000e+00
 12         0.0000000000e+00
 13        -4.4140698344e+00
 14         0.0000000000e+00
 15         0.0000000000e+00
 16        -9.2316220143e-01
 17         0.0000000000e+00
 18         0.0000000000e+00
 19         0.0000000000e+00
 20        -7.1606995054e-02
 21         0.0000000000e+00
 22         0.0000000000e+00
 23         0.0000000000e+00
 24         0.0000000000e+00
 25         1.6488210515e+00
 26         0.0000000000e+00
 27         0.0000000000e+00
 28         0.0000000000e+00
 29         0.0000000000e+00
 30         1.6167619733e+00
 31         0.0000000000e+00
 32         0.0000000000e+00
 33         0.0000000000e+00
 34         0.0000000000e+00
 35         2.5336330996e-02
 36         0.0000000000e+00
 37         0.0000000000e+00
 38         0.0000000000e+00
 39         1.0626700342e-02
 40         0.0000000000e+00
 41         0.0000000000e+00
 42        -1.1930422742e+00
 43         0.0000000000e+00
 44         0.0000000000e+00
 45         0.0000000000e+00
 46         2.2552437545e-01
 47         0.0000000000e+00
 48         0.0000000000e+00
 49        -1.3618865548e-02
 50         0.0000000000e+00
 51         0.0000000000e+00
 52         0.0000000000e+00
 53         1.3371117427e-03
 54         0.0000000000e+00
 55         0.0000000000e+00
 56         1.8847106068e-01
 57         1.4305109681e+00
 58         3.6396277284e+00
 59        -2.3117005616e-01
 60         0.0000000000e+00
 61         2.8234037956e-01
 62        -1.3663101878e-01
 63         0.0000000000e+00
 64        -2.2009116916e+00
 65         8.9103664001e-01
 66         0.0000000000e+00
 67        -1.2452636032e+00
 68         6.3606933912e-01
 69         5.2552685300e-02
 70         0.0000000000e+00
 71        -2.6217767000e-02
 72        -1.7083907779e-02
 73         0.0000000000e+00
 74        -4.3295780314e-01
 75         0.0000000000e+00
 76        -6.2833251327e-01
 77        -8.3919381139e-01
 78         0.0000000000e+00
 79        -6.9946347384e-02
 80         0.0000000000e+00
 81        -1.0099752028e-01
 82        -1.5260591062e-01
 83         0.0000000000e+00
 84         0.0000000000e+00
 85         1.6177847527e-01
 86        -1.8847106068e-01
 87        -1.4305109681e+00
 88        -3.6396277284e+00
 89         2.3117005616e-01
 90         0.0000000000e+00
 91         2.8234037956e-01
 92         1.3663101878e-01
 93         0.0000000000e+00
 94        -2.2009116916e+00
 95        -8.9103664001e-01
 96         0.0000000000e+00
 97        -1.2452636032e+00
 98        -6.3606933912e-01
 99        -5.2552685300e-02
100         0.0000000000e+00
101        -2.6217767000e-02
102         1.7083907779e-02
103         0.0000000000e+00
104         4.3295780314e-01
105         0.0000000000e+00
106        -6.2833251327e-01
107         8.3919381139e-01
108         0.0000000000e+00
109         6.9946347384e-02
110         0.0000000000e+00
111        -1.0099752028e-01
112         1.5260591062e-01
113         0.0000000000e+00
114         0.0000000000e+00
115         1.6177847527e-01
 Sym= A1
 Ene=         4.9479466380e+00
 Spin= Alpha
 Occup=         0.0000000000e+00
  1         3.3214612175e-01
  2         6.4276077951e-01
  3         3.0330495771e+00
  4        -8.2157757967e+00
  5        -5.2193839323e+00
  6         0.0000000000e+00
  7         0.0000000000e+00
  8         5.0534636765e-04
  9         0.0000000000e+00
 10         0.0000000000e+00
 11        -9.5481198964e-03
 12         0.0000000000e+00
 13         0.0000000000e+00
 14         3.6660467615e+00
 15         0.0000000000e+00
 16         0.0000000000e+00
 17         1.0460501805e+00
 18         4.8815814175e-03
 19         0.0000000000e+00
 20         0.0000000000e+00
 21        -6.5850523785e-02
 22         0.0000000000e+00
 23        -5.1281030414e-03
 24         0.0000000000e+00
 25         0.0000000000e+00
 26         1.2036491740e+00
 27         0.0000000000e+00
 28         7.0005307916e-01
 29         0.0000000000e+00
 30         0.0000000000e+00
 31         1.8121452870e+00
 32         0.0000000000e+00
 33         7.4234120603e-03
 34         0.0000000000e+00
 35         0.0000000000e+00
 36        -7.5030193998e-03
 37         0.0000000000e+00
 38         0.0000000000e+00
 39         0.0000000000e+00
 40        -1.0412791719e+00
 41         0.0000000000e+00
 42         0.0000000000e+00
 43        -1.2733090600e+00
 44         0.0000000000e+00
 45         0.0000000000e+00
 46         0.0000000000e+00
 47         1.0707217653e-02
 48         0.0000000000e+00
 49         0.0000000000e+00
 50         4.8167748180e-02
 51         0.0000000000e+00
 52         0.0000000000e+00
 53         0.0000000000e+00
 54         7.1275611877e-03
 55         0.0000000000e+00
 56         1.6140045161e-01
 57         2.1255554105e+00
 58         4.2959011412e+00
 59        -1.4618842222e-01
 60         0.0000000000e+00
 61         2.1533472876e-01
 62        -1.8492650482e-01
 63         0.0000000000e+00
 64        -1.9211416565e+00
 65         1.9681022005e+00
 66         0.0000000000e+00
 67        -1.1536923891e+00
 68         1.0114231624e+00
 69        -2.4420352081e-02
 70         0.0000000000e+00
 71        -7.8744235560e-02
 72        -1.1548601817e-01
 73         0.0000000000e+00
 74         2.5075989371e-01
 75         0.0000000000e+00
 76        -1.0033207930e+00
 77        -3.3544627429e-01
 78         0.0000000000e+00
 79        -4.7097895198e-02
 80         0.0000000000e+00
 81        -5.8120969500e-02
 82        -3.9016828816e-01
 83         0.0000000000e+00
 84         0.0000000000e+00
 85         9.5206458786e-02
 86         1.6140045161e-01
 87         2.1255554105e+00
 88         4.2959011412e+00
 89        -1.4618842222e-01
 90         0.0000000000e+00
 91        -2.1533472876e-01
 92        -1.8492650482e-01
 93         0.0000000000e+00
 94         1.9211416565e+00
 95         1.9681022005e+00
 96         0.0000000000e+00
 97         1.1536923891e+00
 98         1.0114231624e+00
 99        -2.4420352081e-02
100         0.0000000000e+00
101         7.8744235560e-02
102        -1.1548601817e-01
103         0.0000000000e+00
104         2.5075989371e-01
105         0.0000000000e+00
106         1.0033207930e+00
107        -3.3544627429e-01
108         0.0000000000e+00
109        -4.7097895198e-02
110         0.0000000000e+00
111         5.8120969500e-02
112        -3.9016828816e-01
113         0.0000000000e+00
114         0.0000000000e+00
115        -9.5206458786e-02
 Sym= B1
 Ene=         5.6365639778e+00
 Spin= Alpha
 Occup=         0.0000000000e+00
  1         0.0000000000e+00
  2         0.0000000000e+00
  3         0.0000000000e+00
  4         0.0000000000e+00
  5         0.0000000000e+00
  6         2.5034343876e-02
  7         0.0000000000e+00
  8         0.0000000000e+00
  9         6.0049054487e-02
 10         0.0000000000e+00
 11         0.0000000000e+00
 12        -3.3850525597e-01
 13         0.0000000000e+00
 14         0.0000000000e+00
 15        -4.8404140382e-02
 16         0.0000000000e+00
 17         0.0000000000e+00
 18         0.0000000000e+00
 19         1.9953298118e-03
 20         0.0000000000e+00
 21         0.0000000000e+00
 22         0.0000000000e+00
 23         0.0000000000e+00
 24         3.3140239249e-02
 25         0.0000000000e+00
 26         0.0000000000e+00
 27         0.0000000000e+00
 28         0.0000000000e+00
 29         2.2270417411e-01
 30         0.0000000000e+00
 31         0.0000000000e+00
 32         0.0000000000e+00
 33         0.0000000000e+00
 34         7.5047097183e-03
 35         0.0000000000e+00
 36         0.0000000000e+00
 37         0.0000000000e+00
 38         7.8129580427e-03
 39         0.0000000000e+00
 40         0.0000000000e+00
 41        -2.7088277402e-01
 42         0.0000000000e+00
 43         0.0000000000e+00
 44         0.0000000000e+00
 45         2.5442443551e-01
 46         0.0000000000e+00
 47         0.0000000000e+00
 48        -9.0712325734e-02
 49         0.0000000000e+00
 50         0.0000000000e+00
 51         0.0000000000e+00
 52        -1.3496155746e-02
 53         0.0000000000e+00
 54         0.0000000000e+00
 55         0.0000000000e+00
 56         0.0000000000e+00
 57         0.0000000000e+00
 58         0.0000000000e+00
 59         0.0000000000e+00
 60        -2.5447653602e-02
 61         0.0000000000e+00
 62         0.0000000000e+00
 63         2.2344220478e-01
 64         0.0000000000e+00
 65         0.0000000000e+00
 66         4.9304726670e-02
 67         0.0000000000e+00
 68         0.0000000000e+00
 69         0.0000000000e+00
 70        -2.1534493183e-02
 71         0.0000000000e+00
 72         0.0000000000e+00
 73         5.1733924101e-02
 74         0.0000000000e+00
 75         8.0872257437e-02
 76         0.0000000000e+00
 77         0.0000000000e+00
 78        -1.5763552442e-01
 79         0.0000000000e+00
 80         3.7626855860e-01
 81         0.0000000000e+00
 82         0.0000000000e+00
 83         4.2526541252e-01
 84        -3.9449926341e-01
 85         0.0000000000e+00
 86         0.0000000000e+00
 87         0.0000000000e+00
 88         0.0000000000e+00
 89         0.0000000000e+00
 90        -2.5447653602e-02
 91         0.0000000000e+00
 92         0.0000000000e+00
 93         2.2344220478e-01
 94         0.0000000000e+00
 95         0.0000000000e+00
 96         4.9304726670e-02
 97         0.0000000000e+00
 98         0.0000000000e+00
 99         0.0000000000e+00
100        -2.1534493183e-02
101         0.0000000000e+00
102         0.0000000000e+00
103        -5.1733924101e-02
104         0.0000000000e+00
105         8.0872257437e-02
106         0.0000000000e+00
107         0.0000000000e+00
108         1.5763552442e-01
109         0.0000000000e+00
110         3.7626855860e-01
111         0.0000000000e+00
112         0.0000000000e+00
113        -4.2526541252e-01
114        -3.9449926341e-01
115         0.0000000000e+00
 Sym= A1
 Ene=         5.6701960650e+00
 Spin= Alpha
 Occup=         0.0000000000e+00
  1         1.0139650365e-01
  2         2.0653906729e-01
  3         9.5628829533e-01
  4        -2.3148458935e+00
  5        -1.2529549940e+00
  6         0.0000000000e+00
  7         0.0000000000e+00
  8        -4.7738130584e-03
  9         0.0000000000e+00
 10         0.0000000000e+00
 11        -4.0381140646e-02
 12         0.0000000000e+00
 13         0.0000000000e+00
 14         1.1242991243e+00
 15         0.0000000000e+00
 16         0.0000000000e+00
 17         1.7981985004e-01
 18         7.9248609075e-03
 19         0.0000000000e+00
 20         0.0000000000e+00
 21        -2.8932679904e-03
 22         0.0000000000e+00
 23        -1.0012272917e-01
 24         0.0000000000e+00
 25         0.0000000000e+00
 26         2.4497625763e-01
 27         0.0000000000e+00
 28         2.1913556747e-01
 29         0.0000000000e+00
 30         0.0000000000e+00
 31         6.6421945092e-01
 32         0.0000000000e+00
 33        -1.3971829322e-02
 34         0.0000000000e+00
 35         0.0000000000e+00
 36        -1.0175931580e-02
 37         0.0000000000e+00
 38         0.0000000000e+00
 39         0.0000000000e+00
 40        -1.1036213294e-01
 41         0.0000000000e+00
 42         0.0000000000e+00
 43        -5.8355004713e-01
 44         0.0000000000e+00
 45         0.0000000000e+00
 46         0.0000000000e+00
 47         8.3517519159e-02
 48         0.0000000000e+00
 49         0.0000000000e+00
 50        -2.0649965974e-02
 51         0.0000000000e+00
 52         0.0000000000e+00
 53         0.0000000000e+00
 54        -3.5910834931e-02
 55         0.0000000000e+00
 56         5.8056041880e-02
 57         7.5683753901e-01
 58         9.8908909650e-01
 59        -3.5119779385e-02
 60         0.0000000000e+00
 61         1.7343152687e-01
 62        -5.6238666444e-02
 63         0.0000000000e+00
 64        -6.8095266462e-01
 65         5.3303341423e-01
 66         0.0000000000e+00
 67        -1.7744637103e-01
 68         2.6673384594e-01
 69         7.2320022604e-03
 70         0.0000000000e+00
 71        -3.6857533796e-02
 72        -2.8064424431e-02
 73         0.0000000000e+00
 74         8.4707994513e-02
 75         0.0000000000e+00
 76        -2.1931818716e-01
 77        -1.0676699569e-01
 78         0.0000000000e+00
 79        -2.4443055828e-01
 80         0.0000000000e+00
 81        -2.1961389704e-01
 82         3.9709820215e-01
 83         0.0000000000e+00
 84         0.0000000000e+00
 85         4.3307039951e-01
 86         5.8056041880e-02
 87         7.5683753901e-01
 88         9.8908909650e-01
 89        -3.5119779385e-02
 90         0.0000000000e+00
 91        -1.7343152687e-01
 92        -5.6238666444e-02
 93         0.0000000000e+00
 94         6.8095266462e-01
 95         5.3303341423e-01
 96         0.0000000000e+00
 97         1.7744637103e-01
 98         2.6673384594e-01
 99         7.2320022604e-03
100         0.0000000000e+00
101         3.6857533796e-02
102        -2.8064424431e-02
103         0.0000000000e+00
104         8.4707994513e-02
105         0.0000000000e+00
106         2.1931818716e-01
107        -1.0676699569e-01
108         0.0000000000e+00
109        -2.4443055828e-01
110         0.0000000000e+00
111         2.1961389704e-01
112         3.9709820215e-01
113         0.0000000000e+00
114         0.0000000000e+00
115        -4.3307039951e-01
 Sym= A2
 Ene=         5.7873626148e+00
 Spin= Alpha
 Occup=         0.0000000000e+00
  1         0.0000000000e+00
  2         0.0000000000e+00
  3         0.0000000000e+00
  4         0.0000000000e+00
  5         0.0000000000e+00
  6         0.0000000000e+00
  7         0.0000000000e+00
  8         0.0000000000e+00
  9         0.0000000000e+00
 10         0.0000000000e+00
 11         0.0000000000e+00
 12         0.0000000000e+00
 13         0.0000000000e+00
 14         0.0000000000e+00
 15         0.0000000000e+00
 16         0.0000000000e+00
 17         0.0000000000e+00
 18         0.0000000000e+00
 19         0.0000000000e+00
 20         0.0000000000e+00
 21         0.0000000000e+00
 22         9.7523090124e-04
 23         0.0000000000e+00
 24         0.0000000000e+00
 25         0.0000000000e+00
 26         0.0000000000e+00
 27        -7.8419894456e-04
 28         0.0000000000e+00
 29         0.0000000000e+00
 30         0.0000000000e+00
 31         0.0000000000e+00
 32         3.9356156341e-01
 33         0.0000000000e+00
 34         0.0000000000e+00
 35         0.0000000000e+00
 36         0.0000000000e+00
 37        -7.3955849679e-04
 38         0.0000000000e+00
 39         0.0000000000e+00
 40         0.0000000000e+00
 41         0.0000000000e+00
 42         0.0000000000e+00
 43         0.0000000000e+00
 44        -4.5665132871e-01
 45         0.0000000000e+00
 46         0.0000000000e+00
 47         0.0000000000e+00
 48         0.0000000000e+00
 49         0.0000000000e+00
 50         0.0000000000e+00
 51        -1.2101864218e-02
 52         0.0000000000e+00
 53         0.0000000000e+00
 54         0.0000000000e+00
 55        -6.1586350426e-02
 56         0.0000000000e+00
 57         0.0000000000e+00
 58         0.0000000000e+00
 59         0.0000000000e+00
 60         3.0475867365e-02
 61         0.0000000000e+00
 62         0.0000000000e+00
 63        -2.9491235131e-01
 64         0.0000000000e+00
 65         0.0000000000e+00
 66        -9.0208988301e-02
 67         0.0000000000e+00
 68         0.0000000000e+00
 69         0.0000000000e+00
 70         1.4635728215e-02
 71         0.0000000000e+00
 72         0.0000000000e+00
 73        -5.6790609737e-02
 74         0.0000000000e+00
 75        -1.4046404118e-01
 76         0.0000000000e+00
 77         0.0000000000e+00
 78         1.9511757536e-01
 79         0.0000000000e+00
 80         5.3528505376e-01
 81         0.0000000000e+00
 82         0.0000000000e+00
 83         3.7299209215e-01
 84        -2.6039334641e-01
 85         0.0000000000e+00
 86         0.0000000000e+00
 87         0.0000000000e+00
 88         0.0000000000e+00
 89         0.0000000000e+00
 90        -3.0475867365e-02
 91         0.0000000000e+00
 92         0.0000000000e+00
 93         2.9491235131e-01
 94         0.0000000000e+00
 95         0.0000000000e+00
 96         9.0208988301e-02
 97         0.0000000000e+00
 98         0.0000000000e+00
 99         0.0000000000e+00
100        -1.4635728215e-02
101         0.0000000000e+00
102         0.0000000000e+00
103        -5.6790609737e-02
104         0.0000000000e+00
105         1.4046404118e-01
106         0.0000000000e+00
107         0.0000000000e+00
108         1.9511757536e-01
109         0.0000000000e+00
110        -5.3528505376e-01
111         0.0000000000e+00
112         0.0000000000e+00
113         3.7299209215e-01
114         2.6039334641e-01
115         0.0000000000e+00
 Sym= B2
 Ene=         5.7935010102e+00
 Spin= Alpha
 Occup=         0.0000000000e+00
  1         0.0000000000e+00
  2         0.0000000000e+00
  3         0.0000000000e+00
  4         0.0000000000e+00
  5         0.0000000000e+00
  6         0.0000000000e+00
  7         3.8573580869e-02
  8         0.0000000000e+00
  9         0.0000000000e+00
 10         1.1251347572e-01
 11         0.0000000000e+00
 12         0.0000000000e+00
 13        -7.4213089780e-01
 14         0.0000000000e+00
 15         0.0000000000e+00
 16        -1.7779510910e-01
 17         0.0000000000e+00
 18         0.0000000000e+00
 19         0.0000000000e+00
 20        -7.7340510060e-04
 21         0.0000000000e+00
 22         0.0000000000e+00
 23         0.0000000000e+00
 24         0.0000000000e+00
 25         1.4050734011e-01
 26         0.0000000000e+00
 27         0.0000000000e+00
 28         0.0000000000e+00
 29         0.0000000000e+00
 30         4.4799923082e-01
 31         0.0000000000e+00
 32         0.0000000000e+00
 33         0.0000000000e+00
 34         0.0000000000e+00
 35        -6.3515857153e-03
 36         0.0000000000e+00
 37         0.0000000000e+00
 38         0.0000000000e+00
 39         8.0691686293e-03
 40         0.0000000000e+00
 41         0.0000000000e+00
 42        -2.4486663440e-01
 43         0.0000000000e+00
 44         0.0000000000e+00
 45         0.0000000000e+00
 46         2.1536116483e-01
 47         0.0000000000e+00
 48         0.0000000000e+00
 49         2.0166913829e-02
 50         0.0000000000e+00
 51         0.0000000000e+00
 52         0.0000000000e+00
 53        -3.1002334679e-02
 54         0.0000000000e+00
 55         0.0000000000e+00
 56         3.7828077086e-02
 57         4.4435155935e-01
 58         2.7339919452e-01
 59        -4.5005304276e-02
 60         0.0000000000e+00
 61         1.1779953474e-01
 62        -3.6503774969e-02
 63         0.0000000000e+00
 64        -4.0779361706e-01
 65         1.5456947962e-01
 66         0.0000000000e+00
 67         5.7069753808e-02
 68         4.0232817896e-02
 69        -7.4608044125e-03
 70         0.0000000000e+00
 71        -3.9511654890e-02
 72         2.9121816631e-02
 73         0.0000000000e+00
 74        -1.9395277284e-02
 75         0.0000000000e+00
 76        -2.7539203473e-02
 77        -3.6880609717e-02
 78         0.0000000000e+00
 79         2.4388354741e-01
 80         0.0000000000e+00
 81         3.3191524826e-01
 82        -4.5891558871e-01
 83         0.0000000000e+00
 84         0.0000000000e+00
 85        -3.4012907464e-01
 86        -3.7828077086e-02
 87        -4.4435155935e-01
 88        -2.7339919452e-01
 89         4.5005304276e-02
 90         0.0000000000e+00
 91         1.1779953474e-01
 92         3.6503774969e-02
 93         0.0000000000e+00
 94        -4.0779361706e-01
 95        -1.5456947962e-01
 96         0.0000000000e+00
 97         5.7069753808e-02
 98        -4.0232817896e-02
 99         7.4608044125e-03
100         0.0000000000e+00
101        -3.9511654890e-02
102        -2.9121816631e-02
103         0.0000000000e+00
104         1.9395277284e-02
105         0.0000000000e+00
106        -2.7539203473e-02
107         3.6880609717e-02
108         0.0000000000e+00
109        -2.4388354741e-01
110         0.0000000000e+00
111         3.3191524826e-01
112         4.5891558871e-01
113         0.0000000000e+00
114         0.0000000000e+00
115        -3.4012907464e-01
 Sym= A2
 Ene=         6.0383409255e+00
 Spin= Alpha
 Occup=         0.0000000000e+00
  1         0.0000000000e+00
  2         0.0000000000e+00
  3         0.0000000000e+00
  4         0.0000000000e+00
  5         0.0000000000e+00
  6         0.0000000000e+00
  7         0.0000000000e+00
  8         0.0000000000e+00
  9         0.0000000000e+00
 10         0.0000000000e+00
 11         0.0000000000e+00
 12         0.0000000000e+00
 13         0.0000000000e+00
 14         0.0000000000e+00
 15         0.0000000000e+00
 16         0.0000000000e+00
 17         0.0000000000e+00
 18         0.0000000000e+00
 19         0.0000000000e+00
 20         0.0000000000e+00
 21         0.0000000000e+00
 22         1.3246082776e-02
 23         0.0000000000e+00
 24         0.0000000000e+00
 25         0.0000000000e+00
 26         0.0000000000e+00
 27         7.4548445469e-02
 28         0.0000000000e+00
 29         0.0000000000e+00
 30         0.0000000000e+00
 31         0.0000000000e+00
 32         1.5887689811e-03
 33         0.0000000000e+00
 34         0.0000000000e+00
 35         0.0000000000e+00
 36         0.0000000000e+00
 37        -3.7073116680e-02
 38         0.0000000000e+00
 39         0.0000000000e+00
 40         0.0000000000e+00
 41         0.0000000000e+00
 42         0.0000000000e+00
 43         0.0000000000e+00
 44         2.6295894034e-01
 45         0.0000000000e+00
 46         0.0000000000e+00
 47         0.0000000000e+00
 48         0.0000000000e+00
 49         0.0000000000e+00
 50         0.0000000000e+00
 51         9.7690728425e-02
 52         0.0000000000e+00
 53         0.0000000000e+00
 54         0.0000000000e+00
 55         5.1992042651e-02
 56         0.0000000000e+00
 57         0.0000000000e+00
 58         0.0000000000e+00
 59         0.0000000000e+00
 60         2.2670681306e-02
 61         0.0000000000e+00
 62         0.0000000000e+00
 63         4.4636989895e-02
 64         0.0000000000e+00
 65         0.0000000000e+00
 66         3.7518466507e-02
 67         0.0000000000e+00
 68         0.0000000000e+00
 69         0.0000000000e+00
 70        -7.0871248702e-02
 71         0.0000000000e+00
 72         0.0000000000e+00
 73        -1.0306086774e-01
 74         0.0000000000e+00
 75        -4.0933046560e-03
 76         0.0000000000e+00
 77         0.0000000000e+00
 78        -7.3277026710e-02
 79         0.0000000000e+00
 80        -4.1785283007e-01
 81         0.0000000000e+00
 82         0.0000000000e+00
 83         2.5396033759e-01
 84        -4.9525725714e-01
 85         0.0000000000e+00
 86         0.0000000000e+00
 87         0.0000000000e+00
 88         0.0000000000e+00
 89         0.0000000000e+00
 90        -2.2670681306e-02
 91         0.0000000000e+00
 92         0.0000000000e+00
 93        -4.4636989895e-02
 94         0.0000000000e+00
 95         0.0000000000e+00
 96        -3.7518466507e-02
 97         0.0000000000e+00
 98         0.0000000000e+00
 99         0.0000000000e+00
100         7.0871248702e-02
101         0.0000000000e+00
102         0.0000000000e+00
103        -1.0306086774e-01
104         0.0000000000e+00
105         4.0933046560e-03
106         0.0000000000e+00
107         0.0000000000e+00
108        -7.3277026710e-02
109         0.0000000000e+00
110         4.1785283007e-01
111         0.0000000000e+00
112         0.0000000000e+00
113         2.5396033759e-01
114         4.9525725714e-01
115         0.0000000000e+00
 Sym= A1
 Ene=         6.3712947374e+00
 Spin= Alpha
 Occup=         0.0000000000e+00
  1         7.2527926776e-02
  2         1.4051702326e-01
  3         6.9421741328e-01
  4        -1.7819320016e+00
  5        -1.2053557184e+00
  6         0.0000000000e+00
  7         0.0000000000e+00
  8         5.2964662436e-02
  9         0.0000000000e+00
 10         0.0000000000e+00
 11         2.4307134804e-02
 12         0.0000000000e+00
 13         0.0000000000e+00
 14         2.9804296537e-01
 15         0.0000000000e+00
 16         0.0000000000e+00
 17        -1.9808117904e-02
 18         9.5726300623e-03
 19         0.0000000000e+00
 20         0.0000000000e+00
 21        -2.0555706514e-02
 22         0.0000000000e+00
 23         1.2231631815e-01
 24         0.0000000000e+00
 25         0.0000000000e+00
 26         4.0735863724e-02
 27         0.0000000000e+00
 28         1.0318283615e+00
 29         0.0000000000e+00
 30         0.0000000000e+00
 31         6.9710727488e-01
 32         0.0000000000e+00
 33         3.4712911857e-02
 34         0.0000000000e+00
 35         0.0000000000e+00
 36        -8.2557120974e-04
 37         0.0000000000e+00
 38         0.0000000000e+00
 39         0.0000000000e+00
 40        -9.6632547729e-01
 41         0.0000000000e+00
 42         0.0000000000e+00
 43        -3.1443688917e-01
 44         0.0000000000e+00
 45         0.0000000000e+00
 46         0.0000000000e+00
 47        -7.8403777842e-02
 48         0.0000000000e+00
 49         0.0000000000e+00
 50         2.0121159174e-02
 51         0.0000000000e+00
 52         0.0000000000e+00
 53         0.0000000000e+00
 54        -1.1488006252e-01
 55         0.0000000000e+00
 56        -3.4468679129e-02
 57         6.5306469287e-01
 58         7.9438346880e-01
 59         2.2995143061e-02
 60         0.0000000000e+00
 61         1.0595823879e-02
 62        -4.9610151900e-02
 63         0.0000000000e+00
 64        -1.3701859550e-01
 65         7.2330747533e-01
 66         0.0000000000e+00
 67        -1.4100903140e-01
 68         4.6813906995e-01
 69        -9.9860504359e-02
 70         0.0000000000e+00
 71        -8.8091018820e-04
 72        -8.4118196560e-02
 73         0.0000000000e+00
 74         2.4850851359e-01
 75         0.0000000000e+00
 76        -4.1988077536e-01
 77         2.5130036218e-01
 78         0.0000000000e+00
 79        -6.0382299755e-01
 80         0.0000000000e+00
 81        -8.9299647939e-02
 82         2.5186947297e-02
 83         0.0000000000e+00
 84         0.0000000000e+00
 85        -4.5472515880e-01
 86        -3.4468679129e-02
 87         6.5306469287e-01
 88         7.9438346880e-01
 89         2.2995143061e-02
 90         0.0000000000e+00
 91        -1.0595823879e-02
 92        -4.9610151900e-02
 93         0.0000000000e+00
 94         1.3701859550e-01
 95         7.2330747533e-01
 96         0.0000000000e+00
 97         1.4100903140e-01
 98         4.6813906995e-01
 99        -9.9860504359e-02
100         0.0000000000e+00
101         8.8091018820e-04
102        -8.4118196560e-02
103         0.0000000000e+00
104         2.4850851359e-01
105         0.0000000000e+00
106         4.1988077536e-01
107         2.5130036218e-01
108         0.0000000000e+00
109        -6.0382299755e-01
110         0.0000000000e+00
111         8.9299647939e-02
112         2.5186947297e-02
113         0.0000000000e+00
114         0.0000000000e+00
115         4.5472515880e-01
 Sym= B2
 Ene=         6.4477356001e+00
 Spin= Alpha
 Occup=         0.0000000000e+00
  1         0.0000000000e+00
  2         0.0000000000e+00
  3         0.0000000000e+00
  4         0.0000000000e+00
  5         0.0000000000e+00
  6         0.0000000000e+00
  7         8.8205619136e-03
  8         0.0000000000e+00
  9         0.0000000000e+00
 10        -7.3754108694e-02
 11         0.0000000000e+00
 12         0.0000000000e+00
 13         1.3546253543e-01
 14         0.0000000000e+00
 15         0.0000000000e+00
 16         4.3534094739e-01
 17         0.0000000000e+00
 18         0.0000000000e+00
 19         0.0000000000e+00
 20        -1.7375916182e-02
 21         0.0000000000e+00
 22         0.0000000000e+00
 23         0.0000000000e+00
 24         0.0000000000e+00
 25         9.0136831304e-02
 26         0.0000000000e+00
 27         0.0000000000e+00
 28         0.0000000000e+00
 29         0.0000000000e+00
 30        -4.5970148951e-01
 31         0.0000000000e+00
 32         0.0000000000e+00
 33         0.0000000000e+00
 34         0.0000000000e+00
 35         6.4149346391e-02
 36         0.0000000000e+00
 37         0.0000000000e+00
 38         0.0000000000e+00
 39        -1.7987005930e-02
 40         0.0000000000e+00
 41         0.0000000000e+00
 42         1.0100048932e-01
 43         0.0000000000e+00
 44         0.0000000000e+00
 45         0.0000000000e+00
 46         5.1147676603e-01
 47         0.0000000000e+00
 48         0.0000000000e+00
 49        -1.1388890931e-01
 50         0.0000000000e+00
 51         0.0000000000e+00
 52         0.0000000000e+00
 53         7.2904842398e-02
 54         0.0000000000e+00
 55         0.0000000000e+00
 56        -3.0055758114e-02
 57         3.3337518989e-02
 58        -5.6595476383e-01
 59        -3.0138581340e-02
 60         0.0000000000e+00
 61        -1.9176099352e-01
 62        -1.4829570593e-01
 63         0.0000000000e+00
 64         2.7366556177e-01
 65         3.0463894245e-01
 66         0.0000000000e+00
 67         7.2531473954e-02
 68        -2.0874900072e-01
 69        -9.9610388796e-02
 70         0.0000000000e+00
 71         1.1454450159e-01
 72        -1.5791143633e-01
 73         0.0000000000e+00
 74         2.2173898536e-01
 75         0.0000000000e+00
 76         9.6234787941e-04
 77        -3.4380187025e-02
 78         0.0000000000e+00
 79         4.4538062166e-01
 80         0.0000000000e+00
 81         1.3042717370e-01
 82        -1.0033045264e-01
 83         0.0000000000e+00
 84         0.0000000000e+00
 85         4.9240297746e-01
 86         3.0055758114e-02
 87        -3.3337518989e-02
 88         5.6595476383e-01
 89         3.0138581340e-02
 90         0.0000000000e+00
 91        -1.9176099352e-01
 92         1.4829570593e-01
 93         0.0000000000e+00
 94         2.7366556177e-01
 95        -3.0463894245e-01
 96         0.0000000000e+00
 97         7.2531473954e-02
 98         2.0874900072e-01
 99         9.9610388796e-02
100         0.0000000000e+00
101         1.1454450159e-01
102         1.5791143633e-01
103         0.0000000000e+00
104        -2.2173898536e-01
105         0.0000000000e+00
106         9.6234787941e-04
107         3.4380187025e-02
108         0.0000000000e+00
109        -4.4538062166e-01
110         0.0000000000e+00
111         1.3042717370e-01
112         1.0033045264e-01
113         0.0000000000e+00
114         0.0000000000e+00
115         4.9240297746e-01
 Sym= B2
 Ene=         6.7203658472e+00
 Spin= Alpha
 Occup=         0.0000000000e+00
  1         0.0000000000e+00
  2         0.0000000000e+00
  3         0.0000000000e+00
  4         0.0000000000e+00
  5         0.0000000000e+00
  6         0.0000000000e+00
  7         2.4894674312e-01
  8         0.0000000000e+00
  9         0.0000000000e+00
 10         6.4408507367e-01
 11         0.0000000000e+00
 12         0.0000000000e+00
 13        -5.4978836848e-01
 14         0.0000000000e+00
 15         0.0000000000e+00
 16        -4.6180477751e-02
 17         0.0000000000e+00
 18         0.0000000000e+00
 19         0.0000000000e+00
 20         1.0743092821e-01
 21         0.0000000000e+00
 22         0.0000000000e+00
 23         0.0000000000e+00
 24         0.0000000000e+00
 25        -1.7598151129e-01
 26         0.0000000000e+00
 27         0.0000000000e+00
 28         0.0000000000e+00
 29         0.0000000000e+00
 30         9.6965343784e-01
 31         0.0000000000e+00
 32         0.0000000000e+00
 33         0.0000000000e+00
 34         0.0000000000e+00
 35         6.5565541686e-02
 36         0.0000000000e+00
 37         0.0000000000e+00
 38         0.0000000000e+00
 39         2.2698029018e-02
 40         0.0000000000e+00
 41         0.0000000000e+00
 42        -5.2242663808e-01
 43         0.0000000000e+00
 44         0.0000000000e+00
 45         0.0000000000e+00
 46        -2.4385113058e-01
 47         0.0000000000e+00
 48         0.0000000000e+00
 49         4.8147220779e-02
 50         0.0000000000e+00
 51         0.0000000000e+00
 52         0.0000000000e+00
 53        -1.6923508839e-02
 54         0.0000000000e+00
 55         0.0000000000e+00
 56        -8.9207271573e-02
 57         6.6566793446e-01
 58        -3.9283557163e-02
 59        -4.9542972304e-02
 60         0.0000000000e+00
 61         1.1292915823e-01
 62        -3.4912936737e-01
 63         0.0000000000e+00
 64        -3.6898408241e-01
 65         1.8121323295e-01
 66         0.0000000000e+00
 67         6.4541433269e-02
 68        -4.2531397289e-01
 69        -8.1103486432e-02
 70         0.0000000000e+00
 71         1.2396083276e-01
 72         5.0177057624e-03
 73         0.0000000000e+00
 74        -3.4279979805e-01
 75         0.0000000000e+00
 76         2.9829493670e-01
 77         5.4330357743e-02
 78         0.0000000000e+00
 79         2.2719332894e-03
 80         0.0000000000e+00
 81         5.1469211634e-01
 82         5.4620124986e-01
 83         0.0000000000e+00
 84         0.0000000000e+00
 85        -1.7537719125e-01
 86         8.9207271573e-02
 87        -6.6566793446e-01
 88         3.9283557163e-02
 89         4.9542972304e-02
 90         0.0000000000e+00
 91         1.1292915823e-01
 92         3.4912936737e-01
 93         0.0000000000e+00
 94        -3.6898408241e-01
 95        -1.8121323295e-01
 96         0.0000000000e+00
 97         6.4541433269e-02
 98         4.2531397289e-01
 99         8.1103486432e-02
100         0.0000000000e+00
101         1.2396083276e-01
102        -5.0177057624e-03
103         0.0000000000e+00
104         3.4279979805e-01
105         0.0000000000e+00
106         2.9829493670e-01
107        -5.4330357743e-02
108         0.0000000000e+00
109        -2.2719332894e-03
110         0.0000000000e+00
111         5.1469211634e-01
112        -5.4620124986e-01
113         0.0000000000e+00
114         0.0000000000e+00
115        -1.7537719125e-01
 Sym= B1
 Ene=         6.8749597326e+00
 Spin= Alpha
 Occup=         0.0000000000e+00
  1         0.0000000000e+00
  2         0.0000000000e+00
  3         0.0000000000e+00
  4         0.0000000000e+00
  5         0.0000000000e+00
  6         1.4675199367e-01
  7         0.0000000000e+00
  8         0.0000000000e+00
  9        -1.3893952686e-01
 10         0.0000000000e+00
 11         0.0000000000e+00
 12         9.1435009922e-01
 13         0.0000000000e+00
 14         0.0000000000e+00
 15         2.2285299302e-01
 16         0.0000000000e+00
 17         0.0000000000e+00
 18         0.0000000000e+00
 19        -4.2612401860e-03
 20         0.0000000000e+00
 21         0.0000000000e+00
 22         0.0000000000e+00
 23         0.0000000000e+00
 24        -4.7920440734e-01
 25         0.0000000000e+00
 26         0.0000000000e+00
 27         0.0000000000e+00
 28         0.0000000000e+00
 29        -4.9035797562e-01
 30         0.0000000000e+00
 31         0.0000000000e+00
 32         0.0000000000e+00
 33         0.0000000000e+00
 34        -4.2110097688e-02
 35         0.0000000000e+00
 36         0.0000000000e+00
 37         0.0000000000e+00
 38         4.9187149975e-02
 39         0.0000000000e+00
 40         0.0000000000e+00
 41         5.2027143366e-01
 42         0.0000000000e+00
 43         0.0000000000e+00
 44         0.0000000000e+00
 45        -3.6455134620e-02
 46         0.0000000000e+00
 47         0.0000000000e+00
 48         1.0472629935e-01
 49         0.0000000000e+00
 50         0.0000000000e+00
 51         0.0000000000e+00
 52        -3.8798241336e-02
 53         0.0000000000e+00
 54         0.0000000000e+00
 55         0.0000000000e+00
 56         0.0000000000e+00
 57         0.0000000000e+00
 58         0.0000000000e+00
 59         0.0000000000e+00
 60        -5.3759281920e-01
 61         0.0000000000e+00
 62         0.0000000000e+00
 63         2.4893717008e-01
 64         0.0000000000e+00
 65         0.0000000000e+00
 66        -5.0646934163e-01
 67         0.0000000000e+00
 68         0.0000000000e+00
 69         0.0000000000e+00
 70        -6.8961355152e-02
 71         0.0000000000e+00
 72         0.0000000000e+00
 73         4.8182961466e-02
 74         0.0000000000e+00
 75        -7.1865774491e-02
 76         0.0000000000e+00
 77         0.0000000000e+00
 78         4.6767697823e-01
 79         0.0000000000e+00
 80         3.2011438665e-01
 81         0.0000000000e+00
 82         0.0000000000e+00
 83         2.1871604626e-01
 84         5.9629991770e-01
 85         0.0000000000e+00
 86         0.0000000000e+00
 87         0.0000000000e+00
 88         0.0000000000e+00
 89         0.0000000000e+00
 90        -5.3759281920e-01
 91         0.0000000000e+00
 92         0.0000000000e+00
 93         2.4893717008e-01
 94         0.0000000000e+00
 95         0.0000000000e+00
 96        -5.0646934163e-01
 97         0.0000000000e+00
 98         0.0000000000e+00
 99         0.0000000000e+00
100        -6.8961355152e-02
101         0.0000000000e+00
102         0.0000000000e+00
103        -4.8182961466e-02
104         0.0000000000e+00
105        -7.1865774491e-02
106         0.0000000000e+00
107         0.0000000000e+00
108        -4.6767697823e-01
109         0.0000000000e+00
110         3.2011438665e-01
111         0.0000000000e+00
112         0.0000000000e+00
113        -2.1871604626e-01
114         5.9629991770e-01
115         0.0000000000e+00
 Sym= B1
 Ene=         6.8842285532e+00
 Spin= Alpha
 Occup=         0.0000000000e+00
  1         0.0000000000e+00
  2         0.0000000000e+00
  3         0.0000000000e+00
  4         0.0000000000e+00
  5         0.0000000000e+00
  6         1.2844478317e-01
  7         0.0000000000e+00
  8         0.0000000000e+00
  9        -1.3685803820e-01
 10         0.0000000000e+00
 11         0.0000000000e+00
 12         9.6368951805e-01
 13         0.0000000000e+00
 14         0.0000000000e+00
 15         1.0136202666e-01
 16         0.0000000000e+00
 17         0.0000000000e+00
 18         0.0000000000e+00
 19         3.0368552293e-02
 20         0.0000000000e+00
 21         0.0000000000e+00
 22         0.0000000000e+00
 23         0.0000000000e+00
 24        -2.5624147630e-01
 25         0.0000000000e+00
 26         0.0000000000e+00
 27         0.0000000000e+00
 28         0.0000000000e+00
 29         2.0828226565e-03
 30         0.0000000000e+00
 31         0.0000000000e+00
 32         0.0000000000e+00
 33         0.0000000000e+00
 34         1.8164449449e-02
 35         0.0000000000e+00
 36         0.0000000000e+00
 37         0.0000000000e+00
 38         8.0742900961e-02
 39         0.0000000000e+00
 40         0.0000000000e+00
 41        -4.5977025628e-01
 42         0.0000000000e+00
 43         0.0000000000e+00
 44         0.0000000000e+00
 45        -8.3923809069e-01
 46         0.0000000000e+00
 47         0.0000000000e+00
 48        -1.3142496733e-01
 49         0.0000000000e+00
 50         0.0000000000e+00
 51         0.0000000000e+00
 52         2.0724050784e-03
 53         0.0000000000e+00
 54         0.0000000000e+00
 55         0.0000000000e+00
 56         0.0000000000e+00
 57         0.0000000000e+00
 58         0.0000000000e+00
 59         0.0000000000e+00
 60        -3.7135021675e-01
 61         0.0000000000e+00
 62         0.0000000000e+00
 63         3.2484178569e-02
 64         0.0000000000e+00
 65         0.0000000000e+00
 66        -3.5356377307e-01
 67         0.0000000000e+00
 68         0.0000000000e+00
 69         0.0000000000e+00
 70        -5.7172791074e-02
 71         0.0000000000e+00
 72         0.0000000000e+00
 73         1.8686005549e-02
 74         0.0000000000e+00
 75        -4.9523541282e-01
 76         0.0000000000e+00
 77         0.0000000000e+00
 78         2.0197610197e-01
 79         0.0000000000e+00
 80        -6.4933619684e-01
 81         0.0000000000e+00
 82         0.0000000000e+00
 83         4.9261476979e-01
 84        -2.3644455845e-02
 85         0.0000000000e+00
 86         0.0000000000e+00
 87         0.0000000000e+00
 88         0.0000000000e+00
 89         0.0000000000e+00
 90        -3.7135021675e-01
 91         0.0000000000e+00
 92         0.0000000000e+00
 93         3.2484178569e-02
 94         0.0000000000e+00
 95         0.0000000000e+00
 96        -3.5356377307e-01
 97         0.0000000000e+00
 98         0.0000000000e+00
 99         0.0000000000e+00
100        -5.7172791074e-02
101         0.0000000000e+00
102         0.0000000000e+00
103        -1.8686005549e-02
104         0.0000000000e+00
105        -4.9523541282e-01
106         0.0000000000e+00
107         0.0000000000e+00
108        -2.0197610197e-01
109         0.0000000000e+00
110        -6.4933619684e-01
111         0.0000000000e+00
112         0.0000000000e+00
113        -4.9261476979e-01
114        -2.3644455845e-02
115         0.0000000000e+00
 Sym= A1
 Ene=         6.9734264473e+00
 Spin= Alpha
 Occup=         0.0000000000e+00
  1         1.8803904718e-01
  2         4.5570793275e-01
  3         1.2730598554e+00
  4        -4.7567335359e-01
  5         5.3236314183e-01
  6         0.0000000000e+00
  7         0.0000000000e+00
  8        -2.3347321400e-01
  9         0.0000000000e+00
 10         0.0000000000e+00
 11        -3.0245874145e-01
 12         0.0000000000e+00
 13         0.0000000000e+00
 14         1.7204875256e-01
 15         0.0000000000e+00
 16         0.0000000000e+00
 17         6.5499643737e-03
 18        -6.6180045047e-03
 19         0.0000000000e+00
 20         0.0000000000e+00
 21         6.9349850510e-02
 22         0.0000000000e+00
 23         3.0282418746e-01
 24         0.0000000000e+00
 25         0.0000000000e+00
 26        -1.1540239476e-01
 27         0.0000000000e+00
 28        -2.0286791136e-01
 29         0.0000000000e+00
 30         0.0000000000e+00
 31         2.0234263097e-01
 32         0.0000000000e+00
 33         1.7941181009e-02
 34         0.0000000000e+00
 35         0.0000000000e+00
 36        -2.7633583947e-02
 37         0.0000000000e+00
 38         0.0000000000e+00
 39         0.0000000000e+00
 40         5.4497297217e-02
 41         0.0000000000e+00
 42         0.0000000000e+00
 43         1.1033468064e-01
 44         0.0000000000e+00
 45         0.0000000000e+00
 46         0.0000000000e+00
 47        -1.4197516133e-03
 48         0.0000000000e+00
 49         0.0000000000e+00
 50         2.4233665323e-02
 51         0.0000000000e+00
 52         0.0000000000e+00
 53         0.0000000000e+00
 54        -5.0180910718e-02
 55         0.0000000000e+00
 56         3.9719418710e-02
 57         1.3460495992e-01
 58        -2.1882566556e-01
 59        -9.9526650137e-02
 60         0.0000000000e+00
 61         5.0449467885e-01
 62        -2.1580023288e-01
 63         0.0000000000e+00
 64        -5.2068129669e-01
 65         1.8424671909e-01
 66         0.0000000000e+00
 67         4.3398512615e-01
 68        -2.7110307269e-01
 69         4.2149318736e-02
 70         0.0000000000e+00
 71        -4.9457641677e-03
 72         1.1602329644e-01
 73         0.0000000000e+00
 74         4.6735169536e-02
 75         0.0000000000e+00
 76         2.6497413706e-01
 77         1.3764140191e-01
 78         0.0000000000e+00
 79         3.5308864807e-01
 80         0.0000000000e+00
 81         4.9085765531e-02
 82         4.1915970357e-01
 83         0.0000000000e+00
 84         0.0000000000e+00
 85        -3.9813334269e-01
 86         3.9719418710e-02
 87         1.3460495992e-01
 88        -2.1882566556e-01
 89        -9.9526650137e-02
 90         0.0000000000e+00
 91        -5.0449467885e-01
 92        -2.1580023288e-01
 93         0.0000000000e+00
 94         5.2068129669e-01
 95         1.8424671909e-01
 96         0.0000000000e+00
 97        -4.3398512615e-01
 98        -2.7110307269e-01
 99         4.2149318736e-02
100         0.0000000000e+00
101         4.9457641677e-03
102         1.1602329644e-01
103         0.0000000000e+00
104         4.6735169536e-02
105         0.0000000000e+00
106        -2.6497413706e-01
107         1.3764140191e-01
108         0.0000000000e+00
109         3.5308864807e-01
110         0.0000000000e+00
111        -4.9085765531e-02
112         4.1915970357e-01
113         0.0000000000e+00
114         0.0000000000e+00
115         3.9813334269e-01
 Sym= A2
 Ene=         6.9981945095e+00
 Spin= Alpha
 Occup=         0.0000000000e+00
  1         0.0000000000e+00
  2         0.0000000000e+00
  3         0.0000000000e+00
  4         0.0000000000e+00
  5         0.0000000000e+00
  6         0.0000000000e+00
  7         0.0000000000e+00
  8         0.0000000000e+00
  9         0.0000000000e+00
 10         0.0000000000e+00
 11         0.0000000000e+00
 12         0.0000000000e+00
 13         0.0000000000e+00
 14         0.0000000000e+00
 15         0.0000000000e+00
 16         0.0000000000e+00
 17         0.0000000000e+00
 18         0.0000000000e+00
 19         0.0000000000e+00
 20         0.0000000000e+00
 21         0.0000000000e+00
 22         1.2390398094e-02
 23         0.0000000000e+00
 24         0.0000000000e+00
 25         0.0000000000e+00
 26         0.0000000000e+00
 27        -6.7679210356e-01
 28         0.0000000000e+00
 29         0.0000000000e+00
 30         0.0000000000e+00
 31         0.0000000000e+00
 32        -4.1321915766e-01
 33         0.0000000000e+00
 34         0.0000000000e+00
 35         0.0000000000e+00
 36         0.0000000000e+00
 37        -9.3040354051e-02
 38         0.0000000000e+00
 39         0.0000000000e+00
 40         0.0000000000e+00
 41         0.0000000000e+00
 42         0.0000000000e+00
 43         0.0000000000e+00
 44         4.9034214209e-01
 45         0.0000000000e+00
 46         0.0000000000e+00
 47         0.0000000000e+00
 48         0.0000000000e+00
 49         0.0000000000e+00
 50         0.0000000000e+00
 51         3.4339213099e-02
 52         0.0000000000e+00
 53         0.0000000000e+00
 54         0.0000000000e+00
 55        -2.5684042096e-02
 56         0.0000000000e+00
 57         0.0000000000e+00
 58         0.0000000000e+00
 59         0.0000000000e+00
 60         7.5586654474e-01
 61         0.0000000000e+00
 62         0.0000000000e+00
 63        -3.6658615061e-01
 64         0.0000000000e+00
 65         0.0000000000e+00
 66         5.5185142925e-01
 67         0.0000000000e+00
 68         0.0000000000e+00
 69         0.0000000000e+00
 70        -3.2830256133e-02
 71         0.0000000000e+00
 72         0.0000000000e+00
 73        -3.1572302121e-02
 74         0.0000000000e+00
 75         3.3360179785e-01
 76         0.0000000000e+00
 77         0.0000000000e+00
 78        -4.4863942900e-01
 79         0.0000000000e+00
 80         1.1254164374e-01
 81         0.0000000000e+00
 82         0.0000000000e+00
 83        -5.0925997469e-01
 84        -3.5174395929e-01
 85         0.0000000000e+00
 86         0.0000000000e+00
 87         0.0000000000e+00
 88         0.0000000000e+00
 89         0.0000000000e+00
 90        -7.5586654474e-01
 91         0.0000000000e+00
 92         0.0000000000e+00
 93         3.6658615061e-01
 94         0.0000000000e+00
 95         0.0000000000e+00
 96        -5.5185142925e-01
 97         0.0000000000e+00
 98         0.0000000000e+00
 99         0.0000000000e+00
100         3.2830256133e-02
101         0.0000000000e+00
102         0.0000000000e+00
103        -3.1572302121e-02
104         0.0000000000e+00
105        -3.3360179785e-01
106         0.0000000000e+00
107         0.0000000000e+00
108        -4.4863942900e-01
109         0.0000000000e+00
110        -1.1254164374e-01
111         0.0000000000e+00
112         0.0000000000e+00
113        -5.0925997469e-01
114         3.5174395929e-01
115         0.0000000000e+00
 Sym= B2
 Ene=         7.0437621857e+00
 Spin= Alpha
 Occup=         0.0000000000e+00
  1         0.0000000000e+00
  2         0.0000000000e+00
  3         0.0000000000e+00
  4         0.0000000000e+00
  5         0.0000000000e+00
  6         0.0000000000e+00
  7         5.1808649122e-02
  8         0.0000000000e+00
  9         0.0000000000e+00
 10         6.6620122075e-01
 11         0.0000000000e+00
 12         0.0000000000e+00
 13        -1.7381127399e+00
 14         0.0000000000e+00
 15         0.0000000000e+00
 16        -5.9293029084e-01
 17         0.0000000000e+00
 18         0.0000000000e+00
 19         0.0000000000e+00
 20         6.9871952260e-02
 21         0.0000000000e+00
 22         0.0000000000e+00
 23         0.0000000000e+00
 24         0.0000000000e+00
 25        -5.4638224458e-01
 26         0.0000000000e+00
 27         0.0000000000e+00
 28         0.0000000000e+00
 29         0.0000000000e+00
 30         2.3044664052e-01
 31         0.0000000000e+00
 32         0.0000000000e+00
 33         0.0000000000e+00
 34         0.0000000000e+00
 35        -4.9349326990e-02
 36         0.0000000000e+00
 37         0.0000000000e+00
 38         0.0000000000e+00
 39        -6.2296446734e-02
 40         0.0000000000e+00
 41         0.0000000000e+00
 42         8.0219893639e-01
 43         0.0000000000e+00
 44         0.0000000000e+00
 45         0.0000000000e+00
 46         6.6228061900e-01
 47         0.0000000000e+00
 48         0.0000000000e+00
 49        -3.2529962962e-02
 50         0.0000000000e+00
 51         0.0000000000e+00
 52         0.0000000000e+00
 53         2.8595358274e-02
 54         0.0000000000e+00
 55         0.0000000000e+00
 56        -1.0156081722e-01
 57         5.2004392725e-01
 58         2.0144125076e-01
 59         1.4846857999e-02
 60         0.0000000000e+00
 61         3.4998602361e-01
 62         4.6164267668e-01
 63         0.0000000000e+00
 64        -8.6346793247e-02
 65         5.8638430097e-02
 66         0.0000000000e+00
 67         5.3171909427e-01
 68         5.7008102136e-01
 69        -9.9690698379e-02
 70         0.0000000000e+00
 71         7.6695123781e-03
 72        -9.5325850530e-03
 73         0.0000000000e+00
 74         7.8973193512e-01
 75         0.0000000000e+00
 76        -1.8413073177e-02
 77         5.1247560519e-01
 78         0.0000000000e+00
 79         6.1546251243e-01
 80         0.0000000000e+00
 81        -3.7890193892e-01
 82         3.2382604384e-01
 83         0.0000000000e+00
 84         0.0000000000e+00
 85        -2.5197174897e-01
 86         1.0156081722e-01
 87        -5.2004392725e-01
 88        -2.0144125076e-01
 89        -1.4846857999e-02
 90         0.0000000000e+00
 91         3.4998602361e-01
 92        -4.6164267668e-01
 93         0.0000000000e+00
 94        -8.6346793247e-02
 95        -5.8638430097e-02
 96         0.0000000000e+00
 97         5.3171909427e-01
 98        -5.7008102136e-01
 99         9.9690698379e-02
100         0.0000000000e+00
101         7.6695123781e-03
102         9.5325850530e-03
103         0.0000000000e+00
104        -7.8973193512e-01
105         0.0000000000e+00
106        -1.8413073177e-02
107        -5.1247560519e-01
108         0.0000000000e+00
109        -6.1546251243e-01
110         0.0000000000e+00
111        -3.7890193892e-01
112        -3.2382604384e-01
113         0.0000000000e+00
114         0.0000000000e+00
115        -2.5197174897e-01
 Sym= A1
 Ene=         7.1439284243e+00
 Spin= Alpha
 Occup=         0.0000000000e+00
  1         8.6627712208e-02
  2         1.8151388353e-01
  3         5.7896928059e-01
  4        -3.8940296212e-01
  5        -1.3323332686e+00
  6         0.0000000000e+00
  7         0.0000000000e+00
  8         8.8042741080e-02
  9         0.0000000000e+00
 10         0.0000000000e+00
 11        -2.8055102603e-01
 12         0.0000000000e+00
 13         0.0000000000e+00
 14         1.4423617374e+00
 15         0.0000000000e+00
 16         0.0000000000e+00
 17         5.0796914351e-01
 18         2.2810571781e-02
 19         0.0000000000e+00
 20         0.0000000000e+00
 21         1.3502078905e-02
 22         0.0000000000e+00
 23        -6.8311268794e-01
 24         0.0000000000e+00
 25         0.0000000000e+00
 26        -4.6906793176e-01
 27         0.0000000000e+00
 28        -3.9497829389e-01
 29         0.0000000000e+00
 30         0.0000000000e+00
 31         1.7597974680e-01
 32         0.0000000000e+00
 33        -3.6415012483e-02
 34         0.0000000000e+00
 35         0.0000000000e+00
 36        -1.4891263651e-03
 37         0.0000000000e+00
 38         0.0000000000e+00
 39         0.0000000000e+00
 40         1.4943649000e-01
 41         0.0000000000e+00
 42         0.0000000000e+00
 43        -7.5372830387e-02
 44         0.0000000000e+00
 45         0.0000000000e+00
 46         0.0000000000e+00
 47         2.6009256050e-02
 48         0.0000000000e+00
 49         0.0000000000e+00
 50         6.8617593305e-02
 51         0.0000000000e+00
 52         0.0000000000e+00
 53         0.0000000000e+00
 54         2.6941926091e-03
 55         0.0000000000e+00
 56         4.2168018054e-02
 57         1.8826916599e-01
 58         7.7069542363e-01
 59        -2.2002001375e-02
 60         0.0000000000e+00
 61        -2.3101312014e-01
 62        -6.3656838910e-01
 63         0.0000000000e+00
 64        -6.7923431237e-02
 65         4.3180184394e-01
 66         0.0000000000e+00
 67        -3.9973819041e-01
 68        -3.5071391224e-01
 69         1.0078356755e-01
 70         0.0000000000e+00
 71        -1.6188661897e-01
 72         4.2647897108e-02
 73         0.0000000000e+00
 74        -4.9522547824e-01
 75         0.0000000000e+00
 76         3.2809991208e-01
 77        -2.4164960803e-01
 78         0.0000000000e+00
 79        -1.2681550522e-01
 80         0.0000000000e+00
 81         6.6977033354e-01
 82         1.2211481687e-01
 83         0.0000000000e+00
 84         0.0000000000e+00
 85         1.5296578206e-01
 86         4.2168018054e-02
 87         1.8826916599e-01
 88         7.7069542363e-01
 89        -2.2002001375e-02
 90         0.0000000000e+00
 91         2.3101312014e-01
 92        -6.3656838910e-01
 93         0.0000000000e+00
 94         6.7923431237e-02
 95         4.3180184394e-01
 96         0.0000000000e+00
 97         3.9973819041e-01
 98        -3.5071391224e-01
 99         1.0078356755e-01
100         0.0000000000e+00
101         1.6188661897e-01
102         4.2647897108e-02
103         0.0000000000e+00
104        -4.9522547824e-01
105         0.0000000000e+00
106        -3.2809991208e-01
107        -2.4164960803e-01
108         0.0000000000e+00
109        -1.2681550522e-01
110         0.0000000000e+00
111        -6.6977033354e-01
112         1.2211481687e-01
113         0.0000000000e+00
114         0.0000000000e+00
115        -1.5296578206e-01
 Sym= B2
 Ene=         7.5591553026e+00
 Spin= Alpha
 Occup=         0.0000000000e+00
  1         0.0000000000e+00
  2         0.0000000000e+00
  3         0.0000000000e+00
  4         0.0000000000e+00
  5         0.0000000000e+00
  6         0.0000000000e+00
  7         9.2669864101e-02
  8         0.0000000000e+00
  9         0.0000000000e+00
 10         3.3064812988e-01
 11         0.0000000000e+00
 12         0.0000000000e+00
 13        -5.2770551203e-01
 14         0.0000000000e+00
 15         0.0000000000e+00
 16        -6.2660657432e-01
 17         0.0000000000e+00
 18         0.0000000000e+00
 19         0.0000000000e+00
 20         1.1171641765e-01
 21         0.0000000000e+00
 22         0.0000000000e+00
 23         0.0000000000e+00
 24         0.0000000000e+00
 25         2.4559889775e-02
 26         0.0000000000e+00
 27         0.0000000000e+00
 28         0.0000000000e+00
 29         0.0000000000e+00
 30         7.6616374857e-01
 31         0.0000000000e+00
 32         0.0000000000e+00
 33         0.0000000000e+00
 34         0.0000000000e+00
 35         8.8757094379e-03
 36         0.0000000000e+00
 37         0.0000000000e+00
 38         0.0000000000e+00
 39        -7.5098891331e-02
 40         0.0000000000e+00
 41         0.0000000000e+00
 42        -4.5417798230e-01
 43         0.0000000000e+00
 44         0.0000000000e+00
 45         0.0000000000e+00
 46         1.9521573790e-02
 47         0.0000000000e+00
 48         0.0000000000e+00
 49         1.9930478507e-01
 50         0.0000000000e+00
 51         0.0000000000e+00
 52         0.0000000000e+00
 53         2.3591792286e-01
 54         0.0000000000e+00
 55         0.0000000000e+00
 56        -3.9947093859e-01
 57         8.0554158845e-01
 58         7.0011645997e-01
 59         4.1075964846e-01
 60         0.0000000000e+00
 61        -4.8253663607e-01
 62         5.5679484973e-01
 63         0.0000000000e+00
 64         1.8602694433e-01
 65        -6.6290380417e-01
 66         0.0000000000e+00
 67        -7.9621425182e-01
 68         3.2418952777e-01
 69         2.9712577115e-01
 70         0.0000000000e+00
 71         2.6963079815e-01
 72         2.6550770920e-01
 73         0.0000000000e+00
 74        -5.0149772735e-01
 75         0.0000000000e+00
 76        -3.4434044428e-02
 77        -3.7631306741e-01
 78         0.0000000000e+00
 79        -3.5622802699e-02
 80         0.0000000000e+00
 81         3.0768458630e-01
 82         5.9533405186e-02
 83         0.0000000000e+00
 84         0.0000000000e+00
 85         4.3516466554e-02
 86         3.9947093859e-01
 87        -8.0554158845e-01
 88        -7.0011645997e-01
 89        -4.1075964846e-01
 90         0.0000000000e+00
 91        -4.8253663607e-01
 92        -5.5679484973e-01
 93         0.0000000000e+00
 94         1.8602694433e-01
 95         6.6290380417e-01
 96         0.0000000000e+00
 97        -7.9621425182e-01
 98        -3.2418952777e-01
 99        -2.9712577115e-01
100         0.0000000000e+00
101         2.6963079815e-01
102        -2.6550770920e-01
103         0.0000000000e+00
104         5.0149772735e-01
105         0.0000000000e+00
106        -3.4434044428e-02
107         3.7631306741e-01
108         0.0000000000e+00
109         3.5622802699e-02
110         0.0000000000e+00
111         3.0768458630e-01
112        -5.9533405186e-02
113         0.0000000000e+00
114         0.0000000000e+00
115         4.3516466554e-02
 Sym= A1
 Ene=         7.6146413106e+00
 Spin= Alpha
 Occup=         0.0000000000e+00
  1         1.4210234175e-01
  2         3.2032144426e-01
  3         1.0891595940e+00
  4        -1.7485911161e+00
  5        -2.6190473926e+00
  6         0.0000000000e+00
  7         0.0000000000e+00
  8        -9.5754761765e-02
  9         0.0000000000e+00
 10         0.0000000000e+00
 11        -2.0999777103e-01
 12         0.0000000000e+00
 13         0.0000000000e+00
 14         5.5940527604e-01
 15         0.0000000000e+00
 16         0.0000000000e+00
 17         5.2042446708e-01
 18        -3.2262058705e-02
 19         0.0000000000e+00
 20         0.0000000000e+00
 21         8.0406619072e-02
 22         0.0000000000e+00
 23         2.0990432298e-01
 24         0.0000000000e+00
 25         0.0000000000e+00
 26         1.2492610574e-01
 27         0.0000000000e+00
 28         5.7383904990e-01
 29         0.0000000000e+00
 30         0.0000000000e+00
 31         7.0788835079e-01
 32         0.0000000000e+00
 33        -7.5665596356e-04
 34         0.0000000000e+00
 35         0.0000000000e+00
 36         6.9632397127e-02
 37         0.0000000000e+00
 38         0.0000000000e+00
 39         0.0000000000e+00
 40        -3.0235801859e-01
 41         0.0000000000e+00
 42         0.0000000000e+00
 43        -2.4848489415e-01
 44         0.0000000000e+00
 45         0.0000000000e+00
 46         0.0000000000e+00
 47         3.5965048350e-02
 48         0.0000000000e+00
 49         0.0000000000e+00
 50        -1.7920400614e-01
 51         0.0000000000e+00
 52         0.0000000000e+00
 53         0.0000000000e+00
 54         9.1252979129e-02
 55         0.0000000000e+00
 56        -2.7365043908e-01
 57         7.2133883696e-01
 58         1.3774525305e+00
 59         1.4242392474e-01
 60         0.0000000000e+00
 61        -5.7938663491e-01
 62        -1.7319168682e-01
 63         0.0000000000e+00
 64         4.1746857269e-01
 65         5.9753078530e-01
 66         0.0000000000e+00
 67        -6.7006505089e-01
 68         5.2858204648e-01
 69         2.1443089388e-01
 70         0.0000000000e+00
 71         5.0616220965e-01
 72        -3.0055060215e-01
 73         0.0000000000e+00
 74         1.4485767180e-01
 75         0.0000000000e+00
 76        -4.8899007568e-01
 77         2.5020388332e-01
 78         0.0000000000e+00
 79         7.6960001509e-02
 80         0.0000000000e+00
 81        -1.1701404396e-01
 82         1.8481975305e-01
 83         0.0000000000e+00
 84         0.0000000000e+00
 85        -1.7587472391e-01
 86        -2.7365043908e-01
 87         7.2133883696e-01
 88         1.3774525305e+00
 89         1.4242392474e-01
 90         0.0000000000e+00
 91         5.7938663491e-01
 92        -1.7319168682e-01
 93         0.0000000000e+00
 94        -4.1746857269e-01
 95         5.9753078530e-01
 96         0.0000000000e+00
 97         6.7006505089e-01
 98         5.2858204648e-01
 99         2.1443089388e-01
100         0.0000000000e+00
101        -5.0616220965e-01
102        -3.0055060215e-01
103         0.0000000000e+00
104         1.4485767180e-01
105         0.0000000000e+00
106         4.8899007568e-01
107         2.5020388332e-01
108         0.0000000000e+00
109         7.6960001509e-02
110         0.0000000000e+00
111         1.1701404396e-01
112         1.8481975305e-01
113         0.0000000000e+00
114         0.0000000000e+00
115         1.7587472391e-01
 Sym= B1
 Ene=         7.6345672785e+00
 Spin= Alpha
 Occup=         0.0000000000e+00
  1         0.0000000000e+00
  2         0.0000000000e+00
  3         0.0000000000e+00
  4         0.0000000000e+00
  5         0.0000000000e+00
  6         1.4648064799e-03
  7         0.0000000000e+00
  8         0.0000000000e+00
  9         4.0962606987e-02
 10         0.0000000000e+00
 11         0.0000000000e+00
 12        -1.0417890703e+00
 13         0.0000000000e+00
 14         0.0000000000e+00
 15        -1.9475718189e-01
 16         0.0000000000e+00
 17         0.0000000000e+00
 18         0.0000000000e+00
 19        -2.6799937872e-03
 20         0.0000000000e+00
 21         0.0000000000e+00
 22         0.0000000000e+00
 23         0.0000000000e+00
 24         2.3178062326e-01
 25         0.0000000000e+00
 26         0.0000000000e+00
 27         0.0000000000e+00
 28         0.0000000000e+00
 29         3.3053416849e-01
 30         0.0000000000e+00
 31         0.0000000000e+00
 32         0.0000000000e+00
 33         0.0000000000e+00
 34         1.2257704070e-02
 35         0.0000000000e+00
 36         0.0000000000e+00
 37         0.0000000000e+00
 38         5.5367818120e-02
 39         0.0000000000e+00
 40         0.0000000000e+00
 41        -2.7423592408e-02
 42         0.0000000000e+00
 43         0.0000000000e+00
 44         0.0000000000e+00
 45         2.6766111002e-01
 46         0.0000000000e+00
 47         0.0000000000e+00
 48        -1.3492505159e-01
 49         0.0000000000e+00
 50         0.0000000000e+00
 51         0.0000000000e+00
 52        -2.6282999316e-01
 53         0.0000000000e+00
 54         0.0000000000e+00
 55         0.0000000000e+00
 56         0.0000000000e+00
 57         0.0000000000e+00
 58         0.0000000000e+00
 59         0.0000000000e+00
 60        -7.4831510694e-02
 61         0.0000000000e+00
 62         0.0000000000e+00
 63         3.3462659693e-01
 64         0.0000000000e+00
 65         0.0000000000e+00
 66         3.3482665927e-01
 67         0.0000000000e+00
 68         0.0000000000e+00
 69         0.0000000000e+00
 70        -7.9284724806e-01
 71         0.0000000000e+00
 72         0.0000000000e+00
 73        -5.0200262948e-02
 74         0.0000000000e+00
 75         6.9651861595e-01
 76         0.0000000000e+00
 77         0.0000000000e+00
 78        -3.7856460343e-01
 79         0.0000000000e+00
 80         8.9724602563e-02
 81         0.0000000000e+00
 82         0.0000000000e+00
 83        -3.0176988433e-01
 84        -1.6717882918e-01
 85         0.0000000000e+00
 86         0.0000000000e+00
 87         0.0000000000e+00
 88         0.0000000000e+00
 89         0.0000000000e+00
 90        -7.4831510694e-02
 91         0.0000000000e+00
 92         0.0000000000e+00
 93         3.3462659693e-01
 94         0.0000000000e+00
 95         0.0000000000e+00
 96         3.3482665927e-01
 97         0.0000000000e+00
 98         0.0000000000e+00
 99         0.0000000000e+00
100        -7.9284724806e-01
101         0.0000000000e+00
102         0.0000000000e+00
103         5.0200262948e-02
104         0.0000000000e+00
105         6.9651861595e-01
106         0.0000000000e+00
107         0.0000000000e+00
108         3.7856460343e-01
109         0.0000000000e+00
110         8.9724602563e-02
111         0.0000000000e+00
112         0.0000000000e+00
113         3.0176988433e-01
114        -1.6717882918e-01
115         0.0000000000e+00
 Sym= B1
 Ene=         7.6896996945e+00
 Spin= Alpha
 Occup=         0.0000000000e+00
  1         0.0000000000e+00
  2         0.0000000000e+00
  3         0.0000000000e+00
  4         0.0000000000e+00
  5         0.0000000000e+00
  6         8.5428666539e-02
  7         0.0000000000e+00
  8         0.0000000000e+00
  9        -2.8789282890e-02
 10         0.0000000000e+00
 11         0.0000000000e+00
 12        -1.0544469114e+00
 13         0.0000000000e+00
 14         0.0000000000e+00
 15        -3.1532408107e-01
 16         0.0000000000e+00
 17         0.0000000000e+00
 18         0.0000000000e+00
 19        -4.9985681860e-02
 20         0.0000000000e+00
 21         0.0000000000e+00
 22         0.0000000000e+00
 23         0.0000000000e+00
 24         1.1850096105e-01
 25         0.0000000000e+00
 26         0.0000000000e+00
 27         0.0000000000e+00
 28         0.0000000000e+00
 29         7.1037902543e-01
 30         0.0000000000e+00
 31         0.0000000000e+00
 32         0.0000000000e+00
 33         0.0000000000e+00
 34        -4.8664400116e-02
 35         0.0000000000e+00
 36         0.0000000000e+00
 37         0.0000000000e+00
 38         7.4368302373e-02
 39         0.0000000000e+00
 40         0.0000000000e+00
 41        -1.3670374069e-01
 42         0.0000000000e+00
 43         0.0000000000e+00
 44         0.0000000000e+00
 45         1.4391023752e-01
 46         0.0000000000e+00
 47         0.0000000000e+00
 48         6.2867497834e-02
 49         0.0000000000e+00
 50         0.0000000000e+00
 51         0.0000000000e+00
 52        -3.0925344994e-01
 53         0.0000000000e+00
 54         0.0000000000e+00
 55         0.0000000000e+00
 56         0.0000000000e+00
 57         0.0000000000e+00
 58         0.0000000000e+00
 59         0.0000000000e+00
 60        -2.9128571857e-02
 61         0.0000000000e+00
 62         0.0000000000e+00
 63         3.1478161041e-01
 64         0.0000000000e+00
 65         0.0000000000e+00
 66         4.2700598760e-01
 67         0.0000000000e+00
 68         0.0000000000e+00
 69         0.0000000000e+00
 70         6.1656688963e-02
 71         0.0000000000e+00
 72         0.0000000000e+00
 73         7.9405450124e-01
 74         0.0000000000e+00
 75         2.1291440366e-01
 76         0.0000000000e+00
 77         0.0000000000e+00
 78        -8.6177367531e-01
 79         0.0000000000e+00
 80        -4.8591773726e-02
 81         0.0000000000e+00
 82         0.0000000000e+00
 83        -2.3256951578e-01
 84        -2.0913764528e-01
 85         0.0000000000e+00
 86         0.0000000000e+00
 87         0.0000000000e+00
 88         0.0000000000e+00
 89         0.0000000000e+00
 90        -2.9128571857e-02
 91         0.0000000000e+00
 92         0.0000000000e+00
 93         3.1478161041e-01
 94         0.0000000000e+00
 95         0.0000000000e+00
 96         4.2700598760e-01
 97         0.0000000000e+00
 98         0.0000000000e+00
 99         0.0000000000e+00
100         6.1656688963e-02
101         0.0000000000e+00
102         0.0000000000e+00
103        -7.9405450124e-01
104         0.0000000000e+00
105         2.1291440366e-01
106         0.0000000000e+00
107         0.0000000000e+00
108         8.6177367531e-01
109         0.0000000000e+00
110        -4.8591773726e-02
111         0.0000000000e+00
112         0.0000000000e+00
113         2.3256951578e-01
114        -2.0913764528e-01
115         0.0000000000e+00
 Sym= A2
 Ene=         7.7639014561e+00
 Spin= Alpha
 Occup=         0.0000000000e+00
  1         0.0000000000e+00
  2         0.0000000000e+00
  3         0.0000000000e+00
  4         0.0000000000e+00
  5         0.0000000000e+00
  6         0.0000000000e+00
  7         0.0000000000e+00
  8         0.0000000000e+00
  9         0.0000000000e+00
 10         0.0000000000e+00
 11         0.0000000000e+00
 12         0.0000000000e+00
 13         0.0000000000e+00
 14         0.0000000000e+00
 15         0.0000000000e+00
 16         0.0000000000e+00
 17         0.0000000000e+00
 18         0.0000000000e+00
 19         0.0000000000e+00
 20         0.0000000000e+00
 21         0.0000000000e+00
 22         4.9632891322e-02
 23         0.0000000000e+00
 24         0.0000000000e+00
 25         0.0000000000e+00
 26         0.0000000000e+00
 27        -4.4420271339e-01
 28         0.0000000000e+00
 29         0.0000000000e+00
 30         0.0000000000e+00
 31         0.0000000000e+00
 32        -9.5809352153e-01
 33         0.0000000000e+00
 34         0.0000000000e+00
 35         0.0000000000e+00
 36         0.0000000000e+00
 37         8.7656620577e-02
 38         0.0000000000e+00
 39         0.0000000000e+00
 40         0.0000000000e+00
 41         0.0000000000e+00
 42         0.0000000000e+00
 43         0.0000000000e+00
 44         4.4860361859e-01
 45         0.0000000000e+00
 46         0.0000000000e+00
 47         0.0000000000e+00
 48         0.0000000000e+00
 49         0.0000000000e+00
 50         0.0000000000e+00
 51        -2.9833260090e-01
 52         0.0000000000e+00
 53         0.0000000000e+00
 54         0.0000000000e+00
 55         2.9452825200e-01
 56         0.0000000000e+00
 57         0.0000000000e+00
 58         0.0000000000e+00
 59         0.0000000000e+00
 60        -2.8602628626e-01
 61         0.0000000000e+00
 62         0.0000000000e+00
 63         6.8604281560e-01
 64         0.0000000000e+00
 65         0.0000000000e+00
 66         4.5157539027e-01
 67         0.0000000000e+00
 68         0.0000000000e+00
 69         0.0000000000e+00
 70        -1.9854336331e-01
 71         0.0000000000e+00
 72         0.0000000000e+00
 73         6.7917707320e-01
 74         0.0000000000e+00
 75         5.3940299505e-01
 76         0.0000000000e+00
 77         0.0000000000e+00
 78        -9.7808286934e-01
 79         0.0000000000e+00
 80         7.4853273386e-02
 81         0.0000000000e+00
 82         0.0000000000e+00
 83        -3.0522747613e-01
 84        -4.2340981501e-01
 85         0.0000000000e+00
 86         0.0000000000e+00
 87         0.0000000000e+00
 88         0.0000000000e+00
 89         0.0000000000e+00
 90         2.8602628626e-01
 91         0.0000000000e+00
 92         0.0000000000e+00
 93        -6.8604281560e-01
 94         0.0000000000e+00
 95         0.0000000000e+00
 96        -4.5157539027e-01
 97         0.0000000000e+00
 98         0.0000000000e+00
 99         0.0000000000e+00
100         1.9854336331e-01
101         0.0000000000e+00
102         0.0000000000e+00
103         6.7917707320e-01
104         0.0000000000e+00
105        -5.3940299505e-01
106         0.0000000000e+00
107         0.0000000000e+00
108        -9.7808286934e-01
109         0.0000000000e+00
110        -7.4853273386e-02
111         0.0000000000e+00
112         0.0000000000e+00
113        -3.0522747613e-01
114         4.2340981501e-01
115         0.0000000000e+00
 Sym= A1
 Ene=         7.7837626438e+00
 Spin= Alpha
 Occup=         0.0000000000e+00
  1         1.3717339514e-01
  2         3.3878604620e-01
  3         1.2530604949e+00
  4        -2.1939187527e+00
  5        -2.0095115000e+00
  6         0.0000000000e+00
  7         0.0000000000e+00
  8        -8.3038570434e-02
  9         0.0000000000e+00
 10         0.0000000000e+00
 11        -2.3732963828e-01
 12         0.0000000000e+00
 13         0.0000000000e+00
 14         1.3403883912e+00
 15         0.0000000000e+00
 16         0.0000000000e+00
 17         2.4586346737e-01
 18         1.0858212960e-02
 19         0.0000000000e+00
 20         0.0000000000e+00
 21         9.6749560540e-02
 22         0.0000000000e+00
 23        -1.4188789367e-01
 24         0.0000000000e+00
 25         0.0000000000e+00
 26        -9.1874378457e-02
 27         0.0000000000e+00
 28         8.8622894817e-02
 29         0.0000000000e+00
 30         0.0000000000e+00
 31         7.9853794225e-01
 32         0.0000000000e+00
 33         2.9728108864e-02
 34         0.0000000000e+00
 35         0.0000000000e+00
 36         3.7060060664e-02
 37         0.0000000000e+00
 38         0.0000000000e+00
 39         0.0000000000e+00
 40        -1.5971415782e-01
 41         0.0000000000e+00
 42         0.0000000000e+00
 43        -3.7844192267e-01
 44         0.0000000000e+00
 45         0.0000000000e+00
 46         0.0000000000e+00
 47        -1.6386996518e-01
 48         0.0000000000e+00
 49         0.0000000000e+00
 50        -7.0959641500e-02
 51         0.0000000000e+00
 52         0.0000000000e+00
 53         0.0000000000e+00
 54         2.1442410516e-02
 55         0.0000000000e+00
 56        -4.3747660215e-01
 57         1.2294927809e+00
 58         8.5965141775e-01
 59         1.7826738546e-01
 60         0.0000000000e+00
 61        -3.4240597327e-01
 62         3.2045118564e-01
 63         0.0000000000e+00
 64        -5.0674931005e-02
 65         1.8945441469e-02
 66         0.0000000000e+00
 67        -5.5235085248e-01
 68         5.1772649658e-01
 69        -2.7128698198e-01
 70         0.0000000000e+00
 71         5.6205766708e-02
 72         5.9630175620e-01
 73         0.0000000000e+00
 74         1.6167651208e-01
 75         0.0000000000e+00
 76        -1.4304657481e-01
 77        -4.2584030582e-01
 78         0.0000000000e+00
 79         3.5672994813e-02
 80         0.0000000000e+00
 81         1.3865666438e-01
 82         1.2961877639e-01
 83         0.0000000000e+00
 84         0.0000000000e+00
 85         3.9068673946e-02
 86        -4.3747660215e-01
 87         1.2294927809e+00
 88         8.5965141775e-01
 89         1.7826738546e-01
 90         0.0000000000e+00
 91         3.4240597327e-01
 92         3.2045118564e-01
 93         0.0000000000e+00
 94         5.0674931005e-02
 95         1.8945441469e-02
 96         0.0000000000e+00
 97         5.5235085248e-01
 98         5.1772649658e-01
 99        -2.7128698198e-01
100         0.0000000000e+00
101        -5.6205766708e-02
102         5.9630175620e-01
103         0.0000000000e+00
104         1.6167651208e-01
105         0.0000000000e+00
106         1.4304657481e-01
107        -4.2584030582e-01
108         0.0000000000e+00
109         3.5672994813e-02
110         0.0000000000e+00
111        -1.3865666438e-01
112         1.2961877639e-01
113         0.0000000000e+00
114         0.0000000000e+00
115        -3.9068673946e-02
 Sym= B2
 Ene=         7.8045514524e+00
 Spin= Alpha
 Occup=         0.0000000000e+00
  1         0.0000000000e+00
  2         0.0000000000e+00
  3         0.0000000000e+00
  4         0.0000000000e+00
  5         0.0000000000e+00
  6         0.0000000000e+00
  7         6.8191505684e-03
  8         0.0000000000e+00
  9         0.0000000000e+00
 10        -1.0769863348e-01
 11         0.0000000000e+00
 12         0.0000000000e+00
 13         1.4662297294e+00
 14         0.0000000000e+00
 15         0.0000000000e+00
 16         4.3011583464e-01
 17         0.0000000000e+00
 18         0.0000000000e+00
 19         0.0000000000e+00
 20        -6.8432727643e-02
 21         0.0000000000e+00
 22         0.0000000000e+00
 23         0.0000000000e+00
 24         0.0000000000e+00
 25        -9.0019098683e-02
 26         0.0000000000e+00
 27         0.0000000000e+00
 28         0.0000000000e+00
 29         0.0000000000e+00
 30        -1.9868425722e-01
 31         0.0000000000e+00
 32         0.0000000000e+00
 33         0.0000000000e+00
 34         0.0000000000e+00
 35        -2.0750784033e-02
 36         0.0000000000e+00
 37         0.0000000000e+00
 38         0.0000000000e+00
 39        -9.6579905763e-03
 40         0.0000000000e+00
 41         0.0000000000e+00
 42        -4.6147461552e-02
 43         0.0000000000e+00
 44         0.0000000000e+00
 45         0.0000000000e+00
 46        -1.9088225878e-01
 47         0.0000000000e+00
 48         0.0000000000e+00
 49         6.5303682182e-02
 50         0.0000000000e+00
 51         0.0000000000e+00
 52         0.0000000000e+00
 53         7.1484436797e-02
 54         0.0000000000e+00
 55         0.0000000000e+00
 56         2.0013296646e-01
 57        -4.8891027433e-01
 58        -1.0187177005e+00
 59        -2.2172033189e-01
 60         0.0000000000e+00
 61         3.9673145592e-01
 62         1.5169587602e-01
 63         0.0000000000e+00
 64        -1.8635753687e-01
 65        -4.4255667923e-01
 66         0.0000000000e+00
 67         6.9156450166e-01
 68        -3.6146862756e-01
 69         5.7690399589e-01
 70         0.0000000000e+00
 71         1.7627358365e-01
 72        -5.1208152221e-01
 73         0.0000000000e+00
 74        -4.8256764752e-01
 75         0.0000000000e+00
 76         1.5537176499e-01
 77         3.6119944861e-01
 78         0.0000000000e+00
 79        -9.1484742135e-02
 80         0.0000000000e+00
 81         1.8466604680e-01
 82         3.5613020417e-02
 83         0.0000000000e+00
 84         0.0000000000e+00
 85         8.1740534333e-03
 86        -2.0013296646e-01
 87         4.8891027433e-01
 88         1.0187177005e+00
 89         2.2172033189e-01
 90         0.0000000000e+00
 91         3.9673145592e-01
 92        -1.5169587602e-01
 93         0.0000000000e+00
 94        -1.8635753687e-01
 95         4.4255667923e-01
 96         0.0000000000e+00
 97         6.9156450166e-01
 98         3.6146862756e-01
 99        -5.7690399589e-01
100         0.0000000000e+00
101         1.7627358365e-01
102         5.1208152221e-01
103         0.0000000000e+00
104         4.8256764752e-01
105         0.0000000000e+00
106         1.5537176499e-01
107        -3.6119944861e-01
108         0.0000000000e+00
109         9.1484742135e-02
110         0.0000000000e+00
111         1.8466604680e-01
112        -3.5613020417e-02
113         0.0000000000e+00
114         0.0000000000e+00
115         8.1740534333e-03
 Sym= A2
 Ene=         7.8646630282e+00
 Spin= Alpha
 Occup=         0.0000000000e+00
  1         0.0000000000e+00
  2         0.0000000000e+00
  3         0.0000000000e+00
  4         0.0000000000e+00
  5         0.0000000000e+00
  6         0.0000000000e+00
  7         0.0000000000e+00
  8         0.0000000000e+00
  9         0.0000000000e+00
 10         0.0000000000e+00
 11         0.0000000000e+00
 12         0.0000000000e+00
 13         0.0000000000e+00
 14         0.0000000000e+00
 15         0.0000000000e+00
 16         0.0000000000e+00
 17         0.0000000000e+00
 18         0.0000000000e+00
 19         0.0000000000e+00
 20         0.0000000000e+00
 21         0.0000000000e+00
 22         3.8551955323e-02
 23         0.0000000000e+00
 24         0.0000000000e+00
 25         0.0000000000e+00
 26         0.0000000000e+00
 27         9.1826972926e-02
 28         0.0000000000e+00
 29         0.0000000000e+00
 30         0.0000000000e+00
 31         0.0000000000e+00
 32        -4.2355268441e-01
 33         0.0000000000e+00
 34         0.0000000000e+00
 35         0.0000000000e+00
 36         0.0000000000e+00
 37         6.5600585519e-02
 38         0.0000000000e+00
 39         0.0000000000e+00
 40         0.0000000000e+00
 41         0.0000000000e+00
 42         0.0000000000e+00
 43         0.0000000000e+00
 44        -7.8872329825e-02
 45         0.0000000000e+00
 46         0.0000000000e+00
 47         0.0000000000e+00
 48         0.0000000000e+00
 49         0.0000000000e+00
 50         0.0000000000e+00
 51         5.8141836896e-02
 52         0.0000000000e+00
 53         0.0000000000e+00
 54         0.0000000000e+00
 55         1.7928532042e-01
 56         0.0000000000e+00
 57         0.0000000000e+00
 58         0.0000000000e+00
 59         0.0000000000e+00
 60         8.2818680809e-03
 61         0.0000000000e+00
 62         0.0000000000e+00
 63         4.9923722781e-02
 64         0.0000000000e+00
 65         0.0000000000e+00
 66         1.2492618793e-01
 67         0.0000000000e+00
 68         0.0000000000e+00
 69         0.0000000000e+00
 70        -8.1653146685e-01
 71         0.0000000000e+00
 72         0.0000000000e+00
 73        -2.5511803741e-01
 74         0.0000000000e+00
 75         5.6506937791e-01
 76         0.0000000000e+00
 77         0.0000000000e+00
 78         1.3145781106e-01
 79         0.0000000000e+00
 80         1.3782595976e-01
 81         0.0000000000e+00
 82         0.0000000000e+00
 83        -4.7907012670e-02
 84         1.2346464527e-01
 85         0.0000000000e+00
 86         0.0000000000e+00
 87         0.0000000000e+00
 88         0.0000000000e+00
 89         0.0000000000e+00
 90        -8.2818680809e-03
 91         0.0000000000e+00
 92         0.0000000000e+00
 93        -4.9923722781e-02
 94         0.0000000000e+00
 95         0.0000000000e+00
 96        -1.2492618793e-01
 97         0.0000000000e+00
 98         0.0000000000e+00
 99         0.0000000000e+00
100         8.1653146685e-01
101         0.0000000000e+00
102         0.0000000000e+00
103        -2.5511803741e-01
104         0.0000000000e+00
105        -5.6506937791e-01
106         0.0000000000e+00
107         0.0000000000e+00
108         1.3145781106e-01
109         0.0000000000e+00
110        -1.3782595976e-01
111         0.0000000000e+00
112         0.0000000000e+00
113        -4.7907012670e-02
114        -1.2346464527e-01
115         0.0000000000e+00
 Sym= A1
 Ene=         7.9654120027e+00
 Spin= Alpha
 Occup=         0.0000000000e+00
  1         2.8031303261e-02
  2         4.7250876902e-02
  3        -4.4066676964e-02
  4         1.1409952867e+00
  5         3.4408689825e-01
  6         0.0000000000e+00
  7         0.0000000000e+00
  8         9.0689726735e-02
  9         0.0000000000e+00
 10         0.0000000000e+00
 11        -1.0976414539e-01
 12         0.0000000000e+00
 13         0.0000000000e+00
 14        -1.6708924621e+00
 15         0.0000000000e+00
 16         0.0000000000e+00
 17        -3.6212163380e-01
 18        -6.4518166246e-02
 19         0.0000000000e+00
 20         0.0000000000e+00
 21        -5.3389723243e-02
 22         0.0000000000e+00
 23         2.6615993415e-01
 24         0.0000000000e+00
 25         0.0000000000e+00
 26         4.6206846231e-02
 27         0.0000000000e+00
 28         1.1304505472e+00
 29         0.0000000000e+00
 30         0.0000000000e+00
 31         7.8157865117e-01
 32         0.0000000000e+00
 33        -4.2246582962e-02
 34         0.0000000000e+00
 35         0.0000000000e+00
 36         3.0677810925e-02
 37         0.0000000000e+00
 38         0.0000000000e+00
 39         0.0000000000e+00
 40        -4.0155714048e-02
 41         0.0000000000e+00
 42         0.0000000000e+00
 43         3.4772610714e-02
 44         0.0000000000e+00
 45         0.0000000000e+00
 46         0.0000000000e+00
 47        -2.5839334388e-02
 48         0.0000000000e+00
 49         0.0000000000e+00
 50        -3.1593968379e-01
 51         0.0000000000e+00
 52         0.0000000000e+00
 53         0.0000000000e+00
 54        -1.5596245909e-01
 55         0.0000000000e+00
 56         1.2543919007e-01
 57        -2.5754233113e-01
 58        -4.1446276035e-01
 59        -1.2674154467e-02
 60         0.0000000000e+00
 61        -2.4043332298e-01
 62        -3.6659702018e-01
 63         0.0000000000e+00
 64         7.3495643288e-01
 65         5.5481516533e-01
 66         0.0000000000e+00
 67         5.1023924486e-01
 68         2.3178140080e-01
 69        -7.1109431454e-01
 70         0.0000000000e+00
 71        -7.4284004864e-02
 72        -2.3524492164e-01
 73         0.0000000000e+00
 74         1.0345837838e+00
 75         0.0000000000e+00
 76         8.1783306641e-02
 77         5.6687564167e-01
 78         0.0000000000e+00
 79         3.0732231728e-01
 80         0.0000000000e+00
 81        -2.5507967239e-01
 82         1.1852425750e-01
 83         0.0000000000e+00
 84         0.0000000000e+00
 85        -9.3542182015e-02
 86         1.2543919007e-01
 87        -2.5754233113e-01
 88        -4.1446276035e-01
 89        -1.2674154467e-02
 90         0.0000000000e+00
 91         2.4043332298e-01
 92        -3.6659702018e-01
 93         0.0000000000e+00
 94        -7.3495643288e-01
 95         5.5481516533e-01
 96         0.0000000000e+00
 97        -5.1023924486e-01
 98         2.3178140080e-01
 99        -7.1109431454e-01
100         0.0000000000e+00
101         7.4284004864e-02
102        -2.3524492164e-01
103         0.0000000000e+00
104         1.0345837838e+00
105         0.0000000000e+00
106        -8.1783306641e-02
107         5.6687564167e-01
108         0.0000000000e+00
109         3.0732231728e-01
110         0.0000000000e+00
111         2.5507967239e-01
112         1.1852425750e-01
113         0.0000000000e+00
114         0.0000000000e+00
115         9.3542182015e-02
 Sym= B2
 Ene=         8.1727219502e+00
 Spin= Alpha
 Occup=         0.0000000000e+00
  1         0.0000000000e+00
  2         0.0000000000e+00
  3         0.0000000000e+00
  4         0.0000000000e+00
  5         0.0000000000e+00
  6         0.0000000000e+00
  7         1.9506434451e-01
  8         0.0000000000e+00
  9         0.0000000000e+00
 10        -6.2732445897e-01
 11         0.0000000000e+00
 12         0.0000000000e+00
 13        -9.7187033978e-01
 14         0.0000000000e+00
 15         0.0000000000e+00
 16        -8.8065219048e-01
 17         0.0000000000e+00
 18         0.0000000000e+00
 19         0.0000000000e+00
 20         9.8281529454e-03
 21         0.0000000000e+00
 22         0.0000000000e+00
 23         0.0000000000e+00
 24         0.0000000000e+00
 25         2.1643971699e-01
 26         0.0000000000e+00
 27         0.0000000000e+00
 28         0.0000000000e+00
 29         0.0000000000e+00
 30         4.4298324421e-01
 31         0.0000000000e+00
 32         0.0000000000e+00
 33         0.0000000000e+00
 34         0.0000000000e+00
 35         3.6630561046e-02
 36         0.0000000000e+00
 37         0.0000000000e+00
 38         0.0000000000e+00
 39         1.1672617321e-01
 40         0.0000000000e+00
 41         0.0000000000e+00
 42        -3.6895918975e-01
 43         0.0000000000e+00
 44         0.0000000000e+00
 45         0.0000000000e+00
 46        -3.7125622151e-01
 47         0.0000000000e+00
 48         0.0000000000e+00
 49        -2.1098667652e-01
 50         0.0000000000e+00
 51         0.0000000000e+00
 52         0.0000000000e+00
 53        -1.5160160362e-01
 54         0.0000000000e+00
 55         0.0000000000e+00
 56        -2.4415331589e-01
 57         4.3371006911e-01
 58         1.5191655739e+00
 59         1.7826664588e-01
 60         0.0000000000e+00
 61         3.2971704156e-01
 62         2.3584670938e-01
 63         0.0000000000e+00
 64        -8.0669337360e-01
 65        -2.0447750316e-01
 66         0.0000000000e+00
 67        -5.2052974362e-01
 68         8.3019831495e-01
 69        -3.0703321170e-01
 70         0.0000000000e+00
 71         6.5371689009e-01
 72        -8.4185649208e-02
 73         0.0000000000e+00
 74         3.5970198813e-02
 75         0.0000000000e+00
 76        -9.0669683679e-01
 77        -2.0912362774e-01
 78         0.0000000000e+00
 79        -3.3084017937e-01
 80         0.0000000000e+00
 81        -1.1585489491e-01
 82        -2.7851950880e-01
 83         0.0000000000e+00
 84         0.0000000000e+00
 85         1.6987128951e-05
 86         2.4415331589e-01
 87        -4.3371006911e-01
 88        -1.5191655739e+00
 89        -1.7826664588e-01
 90         0.0000000000e+00
 91         3.2971704156e-01
 92        -2.3584670938e-01
 93         0.0000000000e+00
 94        -8.0669337360e-01
 95         2.0447750316e-01
 96         0.0000000000e+00
 97        -5.2052974362e-01
 98        -8.3019831495e-01
 99         3.0703321170e-01
100         0.0000000000e+00
101         6.5371689009e-01
102         8.4185649208e-02
103         0.0000000000e+00
104        -3.5970198813e-02
105         0.0000000000e+00
106        -9.0669683679e-01
107         2.0912362774e-01
108         0.0000000000e+00
109         3.3084017937e-01
110         0.0000000000e+00
111        -1.1585489491e-01
112         2.7851950880e-01
113         0.0000000000e+00
114         0.0000000000e+00
115         1.6987128951e-05
 Sym= A2
 Ene=         8.2854620482e+00
 Spin= Alpha
 Occup=         0.0000000000e+00
  1         0.0000000000e+00
  2         0.0000000000e+00
  3         0.0000000000e+00
  4         0.0000000000e+00
  5         0.0000000000e+00
  6         0.0000000000e+00
  7         0.0000000000e+00
  8         0.0000000000e+00
  9         0.0000000000e+00
 10         0.0000000000e+00
 11         0.0000000000e+00
 12         0.0000000000e+00
 13         0.0000000000e+00
 14         0.0000000000e+00
 15         0.0000000000e+00
 16         0.0000000000e+00
 17         0.0000000000e+00
 18         0.0000000000e+00
 19         0.0000000000e+00
 20         0.0000000000e+00
 21         0.0000000000e+00
 22         4.8860296964e-02
 23         0.0000000000e+00
 24         0.0000000000e+00
 25         0.0000000000e+00
 26         0.0000000000e+00
 27         8.6578112981e-01
 28         0.0000000000e+00
 29         0.0000000000e+00
 30         0.0000000000e+00
 31         0.0000000000e+00
 32         1.2085542373e+00
 33         0.0000000000e+00
 34         0.0000000000e+00
 35         0.0000000000e+00
 36         0.0000000000e+00
 37         1.3338045379e-01
 38         0.0000000000e+00
 39         0.0000000000e+00
 40         0.0000000000e+00
 41         0.0000000000e+00
 42         0.0000000000e+00
 43         0.0000000000e+00
 44        -1.0476657671e+00
 45         0.0000000000e+00
 46         0.0000000000e+00
 47         0.0000000000e+00
 48         0.0000000000e+00
 49         0.0000000000e+00
 50         0.0000000000e+00
 51        -6.7380792893e-02
 52         0.0000000000e+00
 53         0.0000000000e+00
 54         0.0000000000e+00
 55         4.8992910948e-02
 56         0.0000000000e+00
 57         0.0000000000e+00
 58         0.0000000000e+00
 59         0.0000000000e+00
 60         9.5336929608e-01
 61         0.0000000000e+00
 62         0.0000000000e+00
 63        -1.6434792912e+00
 64         0.0000000000e+00
 65         0.0000000000e+00
 66        -1.9121003621e-01
 67         0.0000000000e+00
 68         0.0000000000e+00
 69         0.0000000000e+00
 70         1.9405543056e-02
 71         0.0000000000e+00
 72         0.0000000000e+00
 73         2.4580676636e-01
 74         0.0000000000e+00
 75        -6.4340904314e-01
 76         0.0000000000e+00
 77         0.0000000000e+00
 78         6.6875935262e-01
 79         0.0000000000e+00
 80        -1.0693395132e-01
 81         0.0000000000e+00
 82         0.0000000000e+00
 83         5.9483031788e-01
 84         3.9466150994e-01
 85         0.0000000000e+00
 86         0.0000000000e+00
 87         0.0000000000e+00
 88         0.0000000000e+00
 89         0.0000000000e+00
 90        -9.5336929608e-01
 91         0.0000000000e+00
 92         0.0000000000e+00
 93         1.6434792912e+00
 94         0.0000000000e+00
 95         0.0000000000e+00
 96         1.9121003621e-01
 97         0.0000000000e+00
 98         0.0000000000e+00
 99         0.0000000000e+00
100        -1.9405543056e-02
101         0.0000000000e+00
102         0.0000000000e+00
103         2.4580676636e-01
104         0.0000000000e+00
105         6.4340904314e-01
106         0.0000000000e+00
107         0.0000000000e+00
108         6.6875935262e-01
109         0.0000000000e+00
110         1.0693395132e-01
111         0.0000000000e+00
112         0.0000000000e+00
113         5.9483031788e-01
114        -3.9466150994e-01
115         0.0000000000e+00
 Sym= B1
 Ene=         8.2867788032e+00
 Spin= Alpha
 Occup=         0.0000000000e+00
  1         0.0000000000e+00
  2         0.0000000000e+00
  3         0.0000000000e+00
  4         0.0000000000e+00
  5         0.0000000000e+00
  6         2.3368074805e-01
  7         0.0000000000e+00
  8         0.0000000000e+00
  9        -4.5907264872e-01
 10         0.0000000000e+00
 11         0.0000000000e+00
 12         2.5440781022e+00
 13         0.0000000000e+00
 14         0.0000000000e+00
 15         2.2105568003e-02
 16         0.0000000000e+00
 17         0.0000000000e+00
 18         0.0000000000e+00
 19        -3.3112997457e-02
 20         0.0000000000e+00
 21         0.0000000000e+00
 22         0.0000000000e+00
 23         0.0000000000e+00
 24        -6.2985633708e-01
 25         0.0000000000e+00
 26         0.0000000000e+00
 27         0.0000000000e+00
 28         0.0000000000e+00
 29        -1.0044401730e+00
 30         0.0000000000e+00
 31         0.0000000000e+00
 32         0.0000000000e+00
 33         0.0000000000e+00
 34         3.2061489466e-03
 35         0.0000000000e+00
 36         0.0000000000e+00
 37         0.0000000000e+00
 38         8.8332358323e-02
 39         0.0000000000e+00
 40         0.0000000000e+00
 41         2.9585055758e-01
 42         0.0000000000e+00
 43         0.0000000000e+00
 44         0.0000000000e+00
 45        -9.3191050412e-01
 46         0.0000000000e+00
 47         0.0000000000e+00
 48         6.7977332119e-02
 49         0.0000000000e+00
 50         0.0000000000e+00
 51         0.0000000000e+00
 52         4.1904211225e-02
 53         0.0000000000e+00
 54         0.0000000000e+00
 55         0.0000000000e+00
 56         0.0000000000e+00
 57         0.0000000000e+00
 58         0.0000000000e+00
 59         0.0000000000e+00
 60         1.0858093209e+00
 61         0.0000000000e+00
 62         0.0000000000e+00
 63        -1.8396585768e+00
 64         0.0000000000e+00
 65         0.0000000000e+00
 66        -2.0907203049e-01
 67         0.0000000000e+00
 68         0.0000000000e+00
 69         0.0000000000e+00
 70        -1.1943625928e-01
 71         0.0000000000e+00
 72         0.0000000000e+00
 73         1.1039576559e-03
 74         0.0000000000e+00
 75        -5.6941855154e-01
 76         0.0000000000e+00
 77         0.0000000000e+00
 78         9.5534851468e-01
 79         0.0000000000e+00
 80        -1.3672045448e-01
 81         0.0000000000e+00
 82         0.0000000000e+00
 83         5.1753720677e-01
 84         4.8933181172e-01
 85         0.0000000000e+00
 86         0.0000000000e+00
 87         0.0000000000e+00
 88         0.0000000000e+00
 89         0.0000000000e+00
 90         1.0858093209e+00
 91         0.0000000000e+00
 92         0.0000000000e+00
 93        -1.8396585768e+00
 94         0.0000000000e+00
 95         0.0000000000e+00
 96        -2.0907203049e-01
 97         0.0000000000e+00
 98         0.0000000000e+00
 99         0.0000000000e+00
100        -1.1943625928e-01
101         0.0000000000e+00
102         0.0000000000e+00
103        -1.1039576559e-03
104         0.0000000000e+00
105        -5.6941855154e-01
106         0.0000000000e+00
107         0.0000000000e+00
108        -9.5534851468e-01
109         0.0000000000e+00
110        -1.3672045448e-01
111         0.0000000000e+00
112         0.0000000000e+00
113        -5.1753720677e-01
114         4.8933181172e-01
115         0.0000000000e+00
 Sym= A1
 Ene=         8.4205231232e+00
 Spin= Alpha
 Occup=         0.0000000000e+00
  1         1.9817121304e-01
  2         3.6119476005e-01
  3         5.5339939357e-01
  4         3.0999045162e+00
  5         2.7415793868e+00
  6         0.0000000000e+00
  7         0.0000000000e+00
  8         5.9783552477e-02
  9         0.0000000000e+00
 10         0.0000000000e+00
 11        -6.7784449235e-01
 12         0.0000000000e+00
 13         0.0000000000e+00
 14        -4.0371599027e-01
 15         0.0000000000e+00
 16         0.0000000000e+00
 17        -4.8776699209e-01
 18         1.1326199648e-02
 19         0.0000000000e+00
 20         0.0000000000e+00
 21         9.1983605721e-02
 22         0.0000000000e+00
 23        -1.7680274452e-01
 24         0.0000000000e+00
 25         0.0000000000e+00
 26        -3.3601729169e-01
 27         0.0000000000e+00
 28        -4.6163935722e-01
 29         0.0000000000e+00
 30         0.0000000000e+00
 31        -2.7058972082e-01
 32         0.0000000000e+00
 33         1.4425877714e-01
 34         0.0000000000e+00
 35         0.0000000000e+00
 36         2.3098147945e-01
 37         0.0000000000e+00
 38         0.0000000000e+00
 39         0.0000000000e+00
 40        -8.5892856385e-02
 41         0.0000000000e+00
 42         0.0000000000e+00
 43        -3.6277943642e-01
 44         0.0000000000e+00
 45         0.0000000000e+00
 46         0.0000000000e+00
 47        -1.5970471350e-01
 48         0.0000000000e+00
 49         0.0000000000e+00
 50        -1.5800667268e-01
 51         0.0000000000e+00
 52         0.0000000000e+00
 53         0.0000000000e+00
 54         2.8294376466e-01
 55         0.0000000000e+00
 56         2.1969493929e-01
 57         1.0147108033e-01
 58        -2.6299148104e+00
 59        -2.0320918016e-03
 60         0.0000000000e+00
 61        -2.4650571971e-01
 62         6.7841497308e-01
 63         0.0000000000e+00
 64         4.7550049219e-01
 65        -1.0812460726e+00
 66         0.0000000000e+00
 67         1.1261297219e+00
 68        -9.1129337206e-01
 69         1.1791770985e-01
 70         0.0000000000e+00
 71        -4.7708353087e-01
 72        -2.9408516420e-01
 73         0.0000000000e+00
 74        -3.2871007678e-01
 75         0.0000000000e+00
 76         1.1933478261e+00
 77         5.9524546651e-01
 78         0.0000000000e+00
 79         9.9454495923e-02
 80         0.0000000000e+00
 81         3.2360348554e-01
 82         4.3921562795e-01
 83         0.0000000000e+00
 84         0.0000000000e+00
 85        -1.8261617621e-01
 86         2.1969493929e-01
 87         1.0147108033e-01
 88        -2.6299148104e+00
 89        -2.0320918016e-03
 90         0.0000000000e+00
 91         2.4650571971e-01
 92         6.7841497308e-01
 93         0.0000000000e+00
 94        -4.7550049219e-01
 95        -1.0812460726e+00
 96         0.0000000000e+00
 97        -1.1261297219e+00
 98        -9.1129337206e-01
 99         1.1791770985e-01
100         0.0000000000e+00
101         4.7708353087e-01
102        -2.9408516420e-01
103         0.0000000000e+00
104        -3.2871007678e-01
105         0.0000000000e+00
106        -1.1933478261e+00
107         5.9524546651e-01
108         0.0000000000e+00
109         9.9454495923e-02
110         0.0000000000e+00
111        -3.2360348554e-01
112         4.3921562795e-01
113         0.0000000000e+00
114         0.0000000000e+00
115         1.8261617621e-01
 Sym= B2
 Ene=         8.5278228087e+00
 Spin= Alpha
 Occup=         0.0000000000e+00
  1         0.0000000000e+00
  2         0.0000000000e+00
  3         0.0000000000e+00
  4         0.0000000000e+00
  5         0.0000000000e+00
  6         0.0000000000e+00
  7         9.7795186639e-02
  8         0.0000000000e+00
  9         0.0000000000e+00
 10         1.8771918976e-01
 11         0.0000000000e+00
 12         0.0000000000e+00
 13        -1.2123579729e+00
 14         0.0000000000e+00
 15         0.0000000000e+00
 16         2.5562941514e-01
 17         0.0000000000e+00
 18         0.0000000000e+00
 19         0.0000000000e+00
 20         3.5707903075e-02
 21         0.0000000000e+00
 22         0.0000000000e+00
 23         0.0000000000e+00
 24         0.0000000000e+00
 25        -6.4299878365e-01
 26         0.0000000000e+00
 27         0.0000000000e+00
 28         0.0000000000e+00
 29         0.0000000000e+00
 30        -5.6939262669e-01
 31         0.0000000000e+00
 32         0.0000000000e+00
 33         0.0000000000e+00
 34         0.0000000000e+00
 35        -1.5566152919e-01
 36         0.0000000000e+00
 37         0.0000000000e+00
 38         0.0000000000e+00
 39        -3.9830229958e-02
 40         0.0000000000e+00
 41         0.0000000000e+00
 42         1.4109029899e+00
 43         0.0000000000e+00
 44         0.0000000000e+00
 45         0.0000000000e+00
 46         5.6860255279e-01
 47         0.0000000000e+00
 48         0.0000000000e+00
 49        -1.6370255398e-01
 50         0.0000000000e+00
 51         0.0000000000e+00
 52         0.0000000000e+00
 53         5.0476060847e-02
 54         0.0000000000e+00
 55         0.0000000000e+00
 56        -8.4613619673e-02
 57         1.3037635493e-01
 58        -7.7820750460e-01
 59        -2.6022966315e-02
 60         0.0000000000e+00
 61        -5.9681453951e-01
 62        -7.1788042525e-01
 63         0.0000000000e+00
 64         1.1973981263e+00
 65         1.3164487721e+00
 66         0.0000000000e+00
 67         4.9430532623e-01
 68         1.0092533770e-01
 69         1.5095142841e-01
 70         0.0000000000e+00
 71         3.4408803587e-01
 72        -1.5639650321e-01
 73         0.0000000000e+00
 74         1.0290798056e+00
 75         0.0000000000e+00
 76        -4.6924802340e-01
 77         8.7281193285e-01
 78         0.0000000000e+00
 79         3.4582839079e-01
 80         0.0000000000e+00
 81        -6.4514274026e-01
 82         5.4655720886e-02
 83         0.0000000000e+00
 84         0.0000000000e+00
 85        -4.2957813521e-01
 86         8.4613619673e-02
 87        -1.3037635493e-01
 88         7.7820750460e-01
 89         2.6022966315e-02
 90         0.0000000000e+00
 91        -5.9681453951e-01
 92         7.1788042525e-01
 93         0.0000000000e+00
 94         1.1973981263e+00
 95        -1.3164487721e+00
 96         0.0000000000e+00
 97         4.9430532623e-01
 98        -1.0092533770e-01
 99        -1.5095142841e-01
100         0.0000000000e+00
101         3.4408803587e-01
102         1.5639650321e-01
103         0.0000000000e+00
104        -1.0290798056e+00
105         0.0000000000e+00
106        -4.6924802340e-01
107        -8.7281193285e-01
108         0.0000000000e+00
109        -3.4582839079e-01
110         0.0000000000e+00
111        -6.4514274026e-01
112        -5.4655720886e-02
113         0.0000000000e+00
114         0.0000000000e+00
115        -4.2957813521e-01
 Sym= A1
 Ene=         8.7343486241e+00
 Spin= Alpha
 Occup=         0.0000000000e+00
  1         1.0590943264e-02
  2        -2.5673522162e-02
  3        -1.0759038534e-01
  4         1.0488455490e-01
  5         4.6777843466e-01
  6         0.0000000000e+00
  7         0.0000000000e+00
  8         3.8913797479e-04
  9         0.0000000000e+00
 10         0.0000000000e+00
 11         2.1143542370e-01
 12         0.0000000000e+00
 13         0.0000000000e+00
 14        -1.6541019990e+00
 15         0.0000000000e+00
 16         0.0000000000e+00
 17        -2.7956900250e-01
 18         8.3611496587e-02
 19         0.0000000000e+00
 20         0.0000000000e+00
 21         1.7897139077e-02
 22         0.0000000000e+00
 23         6.4676786726e-01
 24         0.0000000000e+00
 25         0.0000000000e+00
 26         4.9060069413e-01
 27         0.0000000000e+00
 28         1.2542774007e+00
 29         0.0000000000e+00
 30         0.0000000000e+00
 31         6.5255568958e-01
 32         0.0000000000e+00
 33         7.6452522555e-02
 34         0.0000000000e+00
 35         0.0000000000e+00
 36         4.1289715750e-02
 37         0.0000000000e+00
 38         0.0000000000e+00
 39         0.0000000000e+00
 40        -5.9265585665e-01
 41         0.0000000000e+00
 42         0.0000000000e+00
 43        -1.8293591874e-01
 44         0.0000000000e+00
 45         0.0000000000e+00
 46         0.0000000000e+00
 47        -4.1237147510e-01
 48         0.0000000000e+00
 49         0.0000000000e+00
 50         2.5116385997e-01
 51         0.0000000000e+00
 52         0.0000000000e+00
 53         0.0000000000e+00
 54         1.1587869827e-01
 55         0.0000000000e+00
 56         1.0219557499e-01
 57         4.6341680076e-02
 58        -3.2648722479e-01
 59        -3.4732675501e-03
 60         0.0000000000e+00
 61        -5.5846956860e-01
 62        -5.5154134898e-01
 63         0.0000000000e+00
 64         9.1581658729e-01
 65         1.1244272893e+00
 66         0.0000000000e+00
 67         2.5873568571e-01
 68         1.7444797877e-01
 69         7.4402882774e-02
 70         0.0000000000e+00
 71        -2.8978264017e-01
 72         1.0949082230e-01
 73         0.0000000000e+00
 74         6.8160723833e-01
 75         0.0000000000e+00
 76        -1.8763161448e-01
 77         3.9757662771e-01
 78         0.0000000000e+00
 79         6.5619949775e-02
 80         0.0000000000e+00
 81        -5.8718361578e-01
 82         2.6161060882e-02
 83         0.0000000000e+00
 84         0.0000000000e+00
 85        -1.3231400193e-01
 86         1.0219557499e-01
 87         4.6341680076e-02
 88        -3.2648722479e-01
 89        -3.4732675501e-03
 90         0.0000000000e+00
 91         5.5846956860e-01
 92        -5.5154134898e-01
 93         0.0000000000e+00
 94        -9.1581658729e-01
 95         1.1244272893e+00
 96         0.0000000000e+00
 97        -2.5873568571e-01
 98         1.7444797877e-01
 99         7.4402882774e-02
100         0.0000000000e+00
101         2.8978264017e-01
102         1.0949082230e-01
103         0.0000000000e+00
104         6.8160723833e-01
105         0.0000000000e+00
106         1.8763161448e-01
107         3.9757662771e-01
108         0.0000000000e+00
109         6.5619949775e-02
110         0.0000000000e+00
111         5.8718361578e-01
112         2.6161060882e-02
113         0.0000000000e+00
114         0.0000000000e+00
115         1.3231400193e-01
 Sym= B2
 Ene=         8.7360230681e+00
 Spin= Alpha
 Occup=         0.0000000000e+00
  1         0.0000000000e+00
  2         0.0000000000e+00
  3         0.0000000000e+00
  4         0.0000000000e+00
  5         0.0000000000e+00
  6         0.0000000000e+00
  7         3.4726471108e-02
  8         0.0000000000e+00
  9         0.0000000000e+00
 10        -5.2171374404e-01
 11         0.0000000000e+00
 12         0.0000000000e+00
 13        -1.9836287164e+00
 14         0.0000000000e+00
 15         0.0000000000e+00
 16        -5.8079168747e-01
 17         0.0000000000e+00
 18         0.0000000000e+00
 19         0.0000000000e+00
 20        -1.2730701663e-01
 21         0.0000000000e+00
 22         0.0000000000e+00
 23         0.0000000000e+00
 24         0.0000000000e+00
 25         3.3977639914e-01
 26         0.0000000000e+00
 27         0.0000000000e+00
 28         0.0000000000e+00
 29         0.0000000000e+00
 30        -6.9201969608e-02
 31         0.0000000000e+00
 32         0.0000000000e+00
 33         0.0000000000e+00
 34         0.0000000000e+00
 35        -1.7684032934e-01
 36         0.0000000000e+00
 37         0.0000000000e+00
 38         0.0000000000e+00
 39         9.7586111636e-02
 40         0.0000000000e+00
 41         0.0000000000e+00
 42         5.4453919802e-01
 43         0.0000000000e+00
 44         0.0000000000e+00
 45         0.0000000000e+00
 46         2.5104693354e-01
 47         0.0000000000e+00
 48         0.0000000000e+00
 49         2.7275573821e-01
 50         0.0000000000e+00
 51         0.0000000000e+00
 52         0.0000000000e+00
 53        -3.5959119458e-01
 54         0.0000000000e+00
 55         0.0000000000e+00
 56        -2.7360049593e-01
 57         8.0705824366e-02
 58         2.6635175812e+00
 59         4.7644298240e-02
 60         0.0000000000e+00
 61         5.3109691706e-01
 62        -4.4763228487e-01
 63         0.0000000000e+00
 64        -8.2300037795e-01
 65         1.0263416920e+00
 66         0.0000000000e+00
 67        -1.3320685600e+00
 68         6.4439868693e-01
 69         3.1885345933e-01
 70         0.0000000000e+00
 71         1.4011369550e-01
 72         5.0541317937e-01
 73         0.0000000000e+00
 74         2.1557280162e-02
 75         0.0000000000e+00
 76        -7.2552034668e-01
 77        -9.4966491123e-01
 78         0.0000000000e+00
 79         1.1639159954e-01
 80         0.0000000000e+00
 81        -1.5304464998e-01
 82        -2.0234758361e-01
 83         0.0000000000e+00
 84         0.0000000000e+00
 85         3.9306086876e-01
 86         2.7360049593e-01
 87        -8.0705824366e-02
 88        -2.6635175812e+00
 89        -4.7644298240e-02
 90         0.0000000000e+00
 91         5.3109691706e-01
 92         4.4763228487e-01
 93         0.0000000000e+00
 94        -8.2300037795e-01
 95        -1.0263416920e+00
 96         0.0000000000e+00
 97        -1.3320685600e+00
 98        -6.4439868693e-01
 99        -3.1885345933e-01
100         0.0000000000e+00
101         1.4011369550e-01
102        -5.0541317937e-01
103         0.0000000000e+00
104        -2.1557280162e-02
105         0.0000000000e+00
106        -7.2552034668e-01
107         9.4966491123e-01
108         0.0000000000e+00
109        -1.1639159954e-01
110         0.0000000000e+00
111        -1.5304464998e-01
112         2.0234758361e-01
113         0.0000000000e+00
114         0.0000000000e+00
115         3.9306086876e-01
 Sym= B1
 Ene=         9.4851820100e+00
 Spin= Alpha
 Occup=         0.0000000000e+00
  1         0.0000000000e+00
  2         0.0000000000e+00
  3         0.0000000000e+00
  4         0.0000000000e+00
  5         0.0000000000e+00
  6         5.6015903725e-02
  7         0.0000000000e+00
  8         0.0000000000e+00
  9        -1.0890186987e-01
 10         0.0000000000e+00
 11         0.0000000000e+00
 12         3.3056682944e-01
 13         0.0000000000e+00
 14         0.0000000000e+00
 15         4.9980901660e-02
 16         0.0000000000e+00
 17         0.0000000000e+00
 18         0.0000000000e+00
 19        -8.6930357580e-02
 20         0.0000000000e+00
 21         0.0000000000e+00
 22         0.0000000000e+00
 23         0.0000000000e+00
 24        -5.0921879194e-02
 25         0.0000000000e+00
 26         0.0000000000e+00
 27         0.0000000000e+00
 28         0.0000000000e+00
 29        -3.4423019093e-01
 30         0.0000000000e+00
 31         0.0000000000e+00
 32         0.0000000000e+00
 33         0.0000000000e+00
 34         1.3427031094e-01
 35         0.0000000000e+00
 36         0.0000000000e+00
 37         0.0000000000e+00
 38         3.2884929324e-02
 39         0.0000000000e+00
 40         0.0000000000e+00
 41         3.1933641342e-01
 42         0.0000000000e+00
 43         0.0000000000e+00
 44         0.0000000000e+00
 45         6.8694756901e-02
 46         0.0000000000e+00
 47         0.0000000000e+00
 48        -9.7432228007e-01
 49         0.0000000000e+00
 50         0.0000000000e+00
 51         0.0000000000e+00
 52         2.0828129054e-01
 53         0.0000000000e+00
 54         0.0000000000e+00
 55         0.0000000000e+00
 56         0.0000000000e+00
 57         0.0000000000e+00
 58         0.0000000000e+00
 59         0.0000000000e+00
 60         7.1710804577e-02
 61         0.0000000000e+00
 62         0.0000000000e+00
 63        -1.8912033487e-01
 64         0.0000000000e+00
 65         0.0000000000e+00
 66        -7.6565893355e-02
 67         0.0000000000e+00
 68         0.0000000000e+00
 69         0.0000000000e+00
 70         7.9821500830e-02
 71         0.0000000000e+00
 72         0.0000000000e+00
 73         1.2769694788e-01
 74         0.0000000000e+00
 75         4.4405462010e-02
 76         0.0000000000e+00
 77         0.0000000000e+00
 78         1.6994665180e-01
 79         0.0000000000e+00
 80         1.5921039416e-01
 81         0.0000000000e+00
 82         0.0000000000e+00
 83        -1.4001429855e-01
 84         3.0366851401e-01
 85         0.0000000000e+00
 86         0.0000000000e+00
 87         0.0000000000e+00
 88         0.0000000000e+00
 89         0.0000000000e+00
 90         7.1710804577e-02
 91         0.0000000000e+00
 92         0.0000000000e+00
 93        -1.8912033487e-01
 94         0.0000000000e+00
 95         0.0000000000e+00
 96        -7.6565893355e-02
 97         0.0000000000e+00
 98         0.0000000000e+00
 99         0.0000000000e+00
100         7.9821500830e-02
101         0.0000000000e+00
102         0.0000000000e+00
103        -1.2769694788e-01
104         0.0000000000e+00
105         4.4405462010e-02
106         0.0000000000e+00
107         0.0000000000e+00
108        -1.6994665180e-01
109         0.0000000000e+00
110         1.5921039416e-01
111         0.0000000000e+00
112         0.0000000000e+00
113         1.4001429855e-01
114         3.0366851401e-01
115         0.0000000000e+00
 Sym= A1
 Ene=         9.5783387408e+00
 Spin= Alpha
 Occup=         0.0000000000e+00
  1         1.7069189484e-01
  2         2.9522225125e-01
  3         2.0590800994e+00
  4        -5.6622303799e+00
  5        -4.8807004592e+00
  6         0.0000000000e+00
  7         0.0000000000e+00
  8         5.6004269064e-01
  9         0.0000000000e+00
 10         0.0000000000e+00
 11        -8.2259064738e-01
 12         0.0000000000e+00
 13         0.0000000000e+00
 14         3.3834397280e+00
 15         0.0000000000e+00
 16         0.0000000000e+00
 17         8.7216742688e-01
 18         1.6386355414e-01
 19         0.0000000000e+00
 20         0.0000000000e+00
 21         1.3402986980e-01
 22         0.0000000000e+00
 23         2.2553001039e-01
 24         0.0000000000e+00
 25         0.0000000000e+00
 26         7.8610632266e-01
 27         0.0000000000e+00
 28         5.2899656470e-01
 29         0.0000000000e+00
 30         0.0000000000e+00
 31         1.7232535871e+00
 32         0.0000000000e+00
 33         7.7085588077e-02
 34         0.0000000000e+00
 35         0.0000000000e+00
 36         1.7092715691e-01
 37         0.0000000000e+00
 38         0.0000000000e+00
 39         0.0000000000e+00
 40        -9.1717974887e-01
 41         0.0000000000e+00
 42         0.0000000000e+00
 43        -1.0375225826e+00
 44         0.0000000000e+00
 45         0.0000000000e+00
 46         0.0000000000e+00
 47         6.0559684427e-01
 48         0.0000000000e+00
 49         0.0000000000e+00
 50        -2.3020019865e-01
 51         0.0000000000e+00
 52         0.0000000000e+00
 53         0.0000000000e+00
 54        -2.0457282564e-01
 55         0.0000000000e+00
 56        -6.1964121610e-01
 57         2.7674289160e+00
 58         2.9354251299e+00
 59         9.3431206353e-02
 60         0.0000000000e+00
 61        -1.6281076243e-02
 62        -2.2038401337e-01
 63         0.0000000000e+00
 64        -1.3334830158e+00
 65         1.6564316432e+00
 66         0.0000000000e+00
 67        -9.4060955525e-01
 68         7.6904839413e-01
 69         1.6303709013e-01
 70         0.0000000000e+00
 71        -4.7197519259e-01
 72         5.7621795003e-03
 73         0.0000000000e+00
 74         1.5181995771e-01
 75         0.0000000000e+00
 76        -5.5381339199e-01
 77        -2.1622241254e-01
 78         0.0000000000e+00
 79        -8.4449278791e-02
 80         0.0000000000e+00
 81        -2.5834039204e-01
 82        -1.7620311026e-01
 83         0.0000000000e+00
 84         0.0000000000e+00
 85        -1.6233234695e-01
 86        -6.1964121610e-01
 87         2.7674289160e+00
 88         2.9354251299e+00
 89         9.3431206353e-02
 90         0.0000000000e+00
 91         1.6281076243e-02
 92        -2.2038401337e-01
 93         0.0000000000e+00
 94         1.3334830158e+00
 95         1.6564316432e+00
 96         0.0000000000e+00
 97         9.4060955525e-01
 98         7.6904839413e-01
 99         1.6303709013e-01
100         0.0000000000e+00
101         4.7197519259e-01
102         5.7621795003e-03
103         0.0000000000e+00
104         1.5181995771e-01
105         0.0000000000e+00
106         5.5381339199e-01
107        -2.1622241254e-01
108         0.0000000000e+00
109        -8.4449278791e-02
110         0.0000000000e+00
111         2.5834039204e-01
112        -1.7620311026e-01
113         0.0000000000e+00
114         0.0000000000e+00
115         1.6233234695e-01
 Sym= B2
 Ene=         9.7735898530e+00
 Spin= Alpha
 Occup=         0.0000000000e+00
  1         0.0000000000e+00
  2         0.0000000000e+00
  3         0.0000000000e+00
  4         0.0000000000e+00
  5         0.0000000000e+00
  6         0.0000000000e+00
  7         7.8186594866e-01
  8         0.0000000000e+00
  9         0.0000000000e+00
 10        -1.6056180280e+00
 11         0.0000000000e+00
 12         0.0000000000e+00
 13         7.5754501948e+00
 14         0.0000000000e+00
 15         0.0000000000e+00
 16         1.8482635211e+00
 17         0.0000000000e+00
 18         0.0000000000e+00
 19         0.0000000000e+00
 20        -1.7329210336e-01
 21         0.0000000000e+00
 22         0.0000000000e+00
 23         0.0000000000e+00
 24         0.0000000000e+00
 25        -1.0076716354e+00
 26         0.0000000000e+00
 27         0.0000000000e+00
 28         0.0000000000e+00
 29         0.0000000000e+00
 30        -3.1315116466e+00
 31         0.0000000000e+00
 32         0.0000000000e+00
 33         0.0000000000e+00
 34         0.0000000000e+00
 35        -1.2899056513e-02
 36         0.0000000000e+00
 37         0.0000000000e+00
 38         0.0000000000e+00
 39         3.9079090557e-02
 40         0.0000000000e+00
 41         0.0000000000e+00
 42         4.8632617024e-01
 43         0.0000000000e+00
 44         0.0000000000e+00
 45         0.0000000000e+00
 46        -7.9934924051e-01
 47         0.0000000000e+00
 48         0.0000000000e+00
 49         8.3286595165e-02
 50         0.0000000000e+00
 51         0.0000000000e+00
 52         0.0000000000e+00
 53         3.2624797384e-01
 54         0.0000000000e+00
 55         0.0000000000e+00
 56         1.0671455644e+00
 57        -4.2427045057e+00
 58        -3.4153755666e+00
 59        -1.6228350157e-01
 60         0.0000000000e+00
 61        -1.8806731292e-01
 62         2.2127821097e-01
 63         0.0000000000e+00
 64         2.2100279732e+00
 65        -1.7048743723e+00
 66         0.0000000000e+00
 67         9.4835170858e-01
 68        -9.6612476438e-01
 69        -4.7978066985e-03
 70         0.0000000000e+00
 71         2.8379773356e-01
 72         4.0366742185e-01
 73         0.0000000000e+00
 74        -1.5657793599e-01
 75         0.0000000000e+00
 76         6.2703405052e-01
 77         6.5729051460e-02
 78         0.0000000000e+00
 79         1.4625579345e-02
 80         0.0000000000e+00
 81         9.3319067015e-02
 82         1.0856319323e-01
 83         0.0000000000e+00
 84         0.0000000000e+00
 85         1.2031732676e-02
 86        -1.0671455644e+00
 87         4.2427045057e+00
 88         3.4153755666e+00
 89         1.6228350157e-01
 90         0.0000000000e+00
 91        -1.8806731292e-01
 92        -2.2127821097e-01
 93         0.0000000000e+00
 94         2.2100279732e+00
 95         1.7048743723e+00
 96         0.0000000000e+00
 97         9.4835170858e-01
 98         9.6612476438e-01
 99         4.7978066985e-03
100         0.0000000000e+00
101         2.8379773356e-01
102        -4.0366742185e-01
103         0.0000000000e+00
104         1.5657793599e-01
105         0.0000000000e+00
106         6.2703405052e-01
107        -6.5729051460e-02
108         0.0000000000e+00
109        -1.4625579345e-02
110         0.0000000000e+00
111         9.3319067015e-02
112        -1.0856319323e-01
113         0.0000000000e+00
114         0.0000000000e+00
115         1.2031732676e-02
 Sym= A1
 Ene=         9.7995429290e+00
 Spin= Alpha
 Occup=         0.0000000000e+00
  1         1.4186959008e-01
  2         2.8934819381e-01
  3         2.0481427077e+00
  4        -5.3583112141e+00
  5        -5.4633468991e+00
  6         0.0000000000e+00
  7         0.0000000000e+00
  8         6.2989451255e-01
  9         0.0000000000e+00
 10         0.0000000000e+00
 11        -1.1941272840e+00
 12         0.0000000000e+00
 13         0.0000000000e+00
 14         4.9304480550e+00
 15         0.0000000000e+00
 16         0.0000000000e+00
 17         1.2782917890e+00
 18        -1.8510488515e-01
 19         0.0000000000e+00
 20         0.0000000000e+00
 21         4.1679833789e-02
 22         0.0000000000e+00
 23        -1.7274981586e-01
 24         0.0000000000e+00
 25         0.0000000000e+00
 26         3.9736161634e-01
 27         0.0000000000e+00
 28        -1.0644552476e+00
 29         0.0000000000e+00
 30         0.0000000000e+00
 31         1.0963617497e+00
 32         0.0000000000e+00
 33         2.0683050069e-01
 34         0.0000000000e+00
 35         0.0000000000e+00
 36         3.0189533377e-02
 37         0.0000000000e+00
 38         0.0000000000e+00
 39         0.0000000000e+00
 40         7.2636993349e-02
 41         0.0000000000e+00
 42         0.0000000000e+00
 43        -7.7392254239e-01
 44         0.0000000000e+00
 45         0.0000000000e+00
 46         0.0000000000e+00
 47        -3.2900262351e-01
 48         0.0000000000e+00
 49         0.0000000000e+00
 50         5.3665906164e-01
 51         0.0000000000e+00
 52         0.0000000000e+00
 53         0.0000000000e+00
 54        -1.7272798639e-01
 55         0.0000000000e+00
 56        -7.4656472923e-01
 57         2.6023104569e+00
 58         3.3205726107e+00
 59         7.8266794097e-02
 60         0.0000000000e+00
 61         4.2714467259e-01
 62         2.7790443828e-02
 63         0.0000000000e+00
 64        -2.1821753119e+00
 65         6.1382878372e-01
 66         0.0000000000e+00
 67        -1.1895980638e+00
 68         4.9545740466e-01
 69        -9.4438704322e-02
 70         0.0000000000e+00
 71        -5.3378834310e-02
 72        -3.4573171307e-01
 73         0.0000000000e+00
 74        -3.1087680963e-01
 75         0.0000000000e+00
 76        -2.8258960295e-01
 77        -5.8306082764e-01
 78         0.0000000000e+00
 79         6.2885676831e-02
 80         0.0000000000e+00
 81         1.6003796674e-01
 82        -9.9047534908e-04
 83         0.0000000000e+00
 84         0.0000000000e+00
 85         2.7908223150e-01
 86        -7.4656472923e-01
 87         2.6023104569e+00
 88         3.3205726107e+00
 89         7.8266794097e-02
 90         0.0000000000e+00
 91        -4.2714467259e-01
 92         2.7790443828e-02
 93         0.0000000000e+00
 94         2.1821753119e+00
 95         6.1382878372e-01
 96         0.0000000000e+00
 97         1.1895980638e+00
 98         4.9545740466e-01
 99        -9.4438704322e-02
100         0.0000000000e+00
101         5.3378834310e-02
102        -3.4573171307e-01
103         0.0000000000e+00
104        -3.1087680963e-01
105         0.0000000000e+00
106         2.8258960295e-01
107        -5.8306082764e-01
108         0.0000000000e+00
109         6.2885676831e-02
110         0.0000000000e+00
111        -1.6003796674e-01
112        -9.9047534908e-04
113         0.0000000000e+00
114         0.0000000000e+00
115        -2.7908223150e-01
 Sym= B1
 Ene=         1.0022750568e+01
 Spin= Alpha
 Occup=         0.0000000000e+00
  1         0.0000000000e+00
  2         0.0000000000e+00
  3         0.0000000000e+00
  4         0.0000000000e+00
  5         0.0000000000e+00
  6         1.3300112965e+00
  7         0.0000000000e+00
  8         0.0000000000e+00
  9        -1.7363847058e+00
 10         0.0000000000e+00
 11         0.0000000000e+00
 12         1.0492796755e+00
 13         0.0000000000e+00
 14         0.0000000000e+00
 15        -2.8368773468e-01
 16         0.0000000000e+00
 17         0.0000000000e+00
 18         0.0000000000e+00
 19        -9.4445924692e-03
 20         0.0000000000e+00
 21         0.0000000000e+00
 22         0.0000000000e+00
 23         0.0000000000e+00
 24         8.4698268187e-02
 25         0.0000000000e+00
 26         0.0000000000e+00
 27         0.0000000000e+00
 28         0.0000000000e+00
 29        -1.0779761363e-01
 30         0.0000000000e+00
 31         0.0000000000e+00
 32         0.0000000000e+00
 33         0.0000000000e+00
 34         9.0790182794e-02
 35         0.0000000000e+00
 36         0.0000000000e+00
 37         0.0000000000e+00
 38        -2.5593751713e-01
 39         0.0000000000e+00
 40         0.0000000000e+00
 41        -2.7336126611e-02
 42         0.0000000000e+00
 43         0.0000000000e+00
 44         0.0000000000e+00
 45         4.4080919872e-02
 46         0.0000000000e+00
 47         0.0000000000e+00
 48         7.0061906327e-02
 49         0.0000000000e+00
 50         0.0000000000e+00
 51         0.0000000000e+00
 52         2.0895847241e-01
 53         0.0000000000e+00
 54         0.0000000000e+00
 55         0.0000000000e+00
 56         0.0000000000e+00
 57         0.0000000000e+00
 58         0.0000000000e+00
 59         0.0000000000e+00
 60        -5.1562370398e-02
 61         0.0000000000e+00
 62         0.0000000000e+00
 63        -4.2874858375e-02
 64         0.0000000000e+00
 65         0.0000000000e+00
 66        -1.2417060341e-02
 67         0.0000000000e+00
 68         0.0000000000e+00
 69         0.0000000000e+00
 70        -4.6886124548e-02
 71         0.0000000000e+00
 72         0.0000000000e+00
 73         1.3261737464e-02
 74         0.0000000000e+00
 75         9.6512443462e-03
 76         0.0000000000e+00
 77         0.0000000000e+00
 78         2.8555921846e-02
 79         0.0000000000e+00
 80         2.1452723526e-02
 81         0.0000000000e+00
 82         0.0000000000e+00
 83        -8.0535276401e-02
 84        -1.0448736659e-01
 85         0.0000000000e+00
 86         0.0000000000e+00
 87         0.0000000000e+00
 88         0.0000000000e+00
 89         0.0000000000e+00
 90        -5.1562370398e-02
 91         0.0000000000e+00
 92         0.0000000000e+00
 93        -4.2874858375e-02
 94         0.0000000000e+00
 95         0.0000000000e+00
 96        -1.2417060341e-02
 97         0.0000000000e+00
 98         0.0000000000e+00
 99         0.0000000000e+00
100        -4.6886124548e-02
101         0.0000000000e+00
102         0.0000000000e+00
103        -1.3261737464e-02
104         0.0000000000e+00
105         9.6512443462e-03
106         0.0000000000e+00
107         0.0000000000e+00
108        -2.8555921846e-02
109         0.0000000000e+00
110         2.1452723526e-02
111         0.0000000000e+00
112         0.0000000000e+00
113         8.0535276401e-02
114        -1.0448736659e-01
115         0.0000000000e+00
 Sym= A2
 Ene=         1.0209966805e+01
 Spin= Alpha
 Occup=         0.0000000000e+00
  1         0.0000000000e+00
  2         0.0000000000e+00
  3         0.0000000000e+00
  4         0.0000000000e+00
  5         0.0000000000e+00
  6         0.0000000000e+00
  7         0.0000000000e+00
  8         0.0000000000e+00
  9         0.0000000000e+00
 10         0.0000000000e+00
 11         0.0000000000e+00
 12         0.0000000000e+00
 13         0.0000000000e+00
 14         0.0000000000e+00
 15         0.0000000000e+00
 16         0.0000000000e+00
 17         0.0000000000e+00
 18         0.0000000000e+00
 19         0.0000000000e+00
 20         0.0000000000e+00
 21         0.0000000000e+00
 22         2.5131613594e-01
 23         0.0000000000e+00
 24         0.0000000000e+00
 25         0.0000000000e+00
 26         0.0000000000e+00
 27         3.0443198975e-02
 28         0.0000000000e+00
 29         0.0000000000e+00
 30         0.0000000000e+00
 31         0.0000000000e+00
 32         6.2582516992e-01
 33         0.0000000000e+00
 34         0.0000000000e+00
 35         0.0000000000e+00
 36         0.0000000000e+00
 37         9.0710959750e-02
 38         0.0000000000e+00
 39         0.0000000000e+00
 40         0.0000000000e+00
 41         0.0000000000e+00
 42         0.0000000000e+00
 43         0.0000000000e+00
 44        -3.2381292819e-01
 45         0.0000000000e+00
 46         0.0000000000e+00
 47         0.0000000000e+00
 48         0.0000000000e+00
 49         0.0000000000e+00
 50         0.0000000000e+00
 51        -4.4437169078e-01
 52         0.0000000000e+00
 53         0.0000000000e+00
 54         0.0000000000e+00
 55        -9.8757524089e-01
 56         0.0000000000e+00
 57         0.0000000000e+00
 58         0.0000000000e+00
 59         0.0000000000e+00
 60         2.9395097123e-02
 61         0.0000000000e+00
 62         0.0000000000e+00
 63        -3.5777103489e-01
 64         0.0000000000e+00
 65         0.0000000000e+00
 66        -1.3911418392e-01
 67         0.0000000000e+00
 68         0.0000000000e+00
 69         0.0000000000e+00
 70        -2.5147259621e-01
 71         0.0000000000e+00
 72         0.0000000000e+00
 73         1.1984168052e-01
 74         0.0000000000e+00
 75        -1.9452637998e-01
 76         0.0000000000e+00
 77         0.0000000000e+00
 78         6.9953772691e-02
 79         0.0000000000e+00
 80        -3.1030050047e-01
 81         0.0000000000e+00
 82         0.0000000000e+00
 83         1.5990039998e-01
 84        -7.7097061249e-02
 85         0.0000000000e+00
 86         0.0000000000e+00
 87         0.0000000000e+00
 88         0.0000000000e+00
 89         0.0000000000e+00
 90        -2.9395097123e-02
 91         0.0000000000e+00
 92         0.0000000000e+00
 93         3.5777103489e-01
 94         0.0000000000e+00
 95         0.0000000000e+00
 96         1.3911418392e-01
 97         0.0000000000e+00
 98         0.0000000000e+00
 99         0.0000000000e+00
100         2.5147259621e-01
101         0.0000000000e+00
102         0.0000000000e+00
103         1.1984168052e-01
104         0.0000000000e+00
105         1.9452637998e-01
106         0.0000000000e+00
107         0.0000000000e+00
108         6.9953772691e-02
109         0.0000000000e+00
110         3.1030050047e-01
111         0.0000000000e+00
112         0.0000000000e+00
113         1.5990039998e-01
114         7.7097061249e-02
115         0.0000000000e+00
 Sym= A1
 Ene=         1.0211989466e+01
 Spin= Alpha
 Occup=         0.0000000000e+00
  1         4.3713707856e-02
  2         6.6640733738e-02
  3         5.9394107112e-02
  4         9.3079336150e-01
  5         5.3443171219e-01
  6         0.0000000000e+00
  7         0.0000000000e+00
  8        -3.0219950952e-01
  9         0.0000000000e+00
 10         0.0000000000e+00
 11         3.3009567162e-01
 12         0.0000000000e+00
 13         0.0000000000e+00
 14        -9.0040188961e-01
 15         0.0000000000e+00
 16         0.0000000000e+00
 17        -1.1294933713e-01
 18         7.3799190593e-02
 19         0.0000000000e+00
 20         0.0000000000e+00
 21         2.6023785776e-01
 22         0.0000000000e+00
 23         3.6931636566e-02
 24         0.0000000000e+00
 25         0.0000000000e+00
 26        -8.4589789210e-02
 27         0.0000000000e+00
 28         3.9890816242e-01
 29         0.0000000000e+00
 30         0.0000000000e+00
 31         5.4394291242e-01
 32         0.0000000000e+00
 33         1.2297856220e-01
 34         0.0000000000e+00
 35         0.0000000000e+00
 36         1.1867504282e-01
 37         0.0000000000e+00
 38         0.0000000000e+00
 39         0.0000000000e+00
 40        -1.6656021674e-01
 41         0.0000000000e+00
 42         0.0000000000e+00
 43        -3.6626453963e-01
 44         0.0000000000e+00
 45         0.0000000000e+00
 46         0.0000000000e+00
 47        -1.5196253705e-01
 48         0.0000000000e+00
 49         0.0000000000e+00
 50        -6.1044594358e-03
 51         0.0000000000e+00
 52         0.0000000000e+00
 53         0.0000000000e+00
 54        -9.9835251843e-01
 55         0.0000000000e+00
 56         2.2757714218e-01
 57         1.2519294747e-01
 58        -7.2983225643e-01
 59         3.5210398992e-02
 60         0.0000000000e+00
 61        -4.1069077919e-01
 62         2.3694137548e-01
 63         0.0000000000e+00
 64         6.1011003036e-01
 65        -6.1971407349e-03
 66         0.0000000000e+00
 67         3.5295122641e-01
 68        -7.9779955607e-02
 69         2.0226128934e-01
 70         0.0000000000e+00
 71        -1.5411201674e-01
 72        -7.2726296797e-02
 73         0.0000000000e+00
 74         2.0219884831e-01
 75         0.0000000000e+00
 76         2.6437878095e-01
 77         2.1117190732e-01
 78         0.0000000000e+00
 79         2.3364772191e-01
 80         0.0000000000e+00
 81        -5.1213117383e-02
 82        -2.7840053884e-02
 83         0.0000000000e+00
 84         0.0000000000e+00
 85         1.1963899266e-01
 86         2.2757714218e-01
 87         1.2519294747e-01
 88        -7.2983225643e-01
 89         3.5210398992e-02
 90         0.0000000000e+00
 91         4.1069077919e-01
 92         2.3694137548e-01
 93         0.0000000000e+00
 94        -6.1011003036e-01
 95        -6.1971407349e-03
 96         0.0000000000e+00
 97        -3.5295122641e-01
 98        -7.9779955607e-02
 99         2.0226128934e-01
100         0.0000000000e+00
101         1.5411201674e-01
102        -7.2726296797e-02
103         0.0000000000e+00
104         2.0219884831e-01
105         0.0000000000e+00
106        -2.6437878095e-01
107         2.1117190732e-01
108         0.0000000000e+00
109         2.3364772191e-01
110         0.0000000000e+00
111         5.1213117383e-02
112        -2.7840053884e-02
113         0.0000000000e+00
114         0.0000000000e+00
115        -1.1963899266e-01
 Sym= B2
 Ene=         1.0564549788e+01
 Spin= Alpha
 Occup=         0.0000000000e+00
  1         0.0000000000e+00
  2         0.0000000000e+00
  3         0.0000000000e+00
  4         0.0000000000e+00
  5         0.0000000000e+00
  6         0.0000000000e+00
  7         1.1127739845e-01
  8         0.0000000000e+00
  9         0.0000000000e+00
 10         1.5024396714e-01
 11         0.0000000000e+00
 12         0.0000000000e+00
 13         1.1643293693e+00
 14         0.0000000000e+00
 15         0.0000000000e+00
 16         1.4854517659e-01
 17         0.0000000000e+00
 18         0.0000000000e+00
 19         0.0000000000e+00
 20         3.4355455637e-01
 21         0.0000000000e+00
 22         0.0000000000e+00
 23         0.0000000000e+00
 24         0.0000000000e+00
 25        -3.4037987261e-01
 26         0.0000000000e+00
 27         0.0000000000e+00
 28         0.0000000000e+00
 29         0.0000000000e+00
 30         3.0639977035e-01
 31         0.0000000000e+00
 32         0.0000000000e+00
 33         0.0000000000e+00
 34         0.0000000000e+00
 35         6.8796461153e-02
 36         0.0000000000e+00
 37         0.0000000000e+00
 38         0.0000000000e+00
 39         2.6502176431e-02
 40         0.0000000000e+00
 41         0.0000000000e+00
 42        -5.3544682264e-01
 43         0.0000000000e+00
 44         0.0000000000e+00
 45         0.0000000000e+00
 46         2.4126657045e-01
 47         0.0000000000e+00
 48         0.0000000000e+00
 49         4.0512273605e-01
 50         0.0000000000e+00
 51         0.0000000000e+00
 52         0.0000000000e+00
 53        -8.7156699082e-01
 54         0.0000000000e+00
 55         0.0000000000e+00
 56         3.6675747860e-01
 57         5.7774884068e-02
 58        -1.3924689299e+00
 59         9.0844027173e-02
 60         0.0000000000e+00
 61        -6.3255988765e-01
 62         4.4051428407e-01
 63         0.0000000000e+00
 64         6.4692784382e-01
 65        -7.6223474043e-01
 66         0.0000000000e+00
 67         5.5371465818e-01
 68        -3.7207912172e-01
 69        -7.5332527229e-02
 70         0.0000000000e+00
 71        -8.3257389612e-02
 72        -3.2859850444e-01
 73         0.0000000000e+00
 74        -5.9495661253e-02
 75         0.0000000000e+00
 76         5.4285296898e-01
 77         3.3308366791e-01
 78         0.0000000000e+00
 79         1.4948121534e-01
 80         0.0000000000e+00
 81         7.9448372952e-02
 82         3.6626675399e-02
 83         0.0000000000e+00
 84         0.0000000000e+00
 85         1.4165142337e-01
 86        -3.6675747860e-01
 87        -5.7774884068e-02
 88         1.3924689299e+00
 89        -9.0844027173e-02
 90         0.0000000000e+00
 91        -6.3255988765e-01
 92        -4.4051428407e-01
 93         0.0000000000e+00
 94         6.4692784382e-01
 95         7.6223474043e-01
 96         0.0000000000e+00
 97         5.5371465818e-01
 98         3.7207912172e-01
 99         7.5332527229e-02
100         0.0000000000e+00
101        -8.3257389612e-02
102         3.2859850444e-01
103         0.0000000000e+00
104         5.9495661253e-02
105         0.0000000000e+00
106         5.4285296898e-01
107        -3.3308366791e-01
108         0.0000000000e+00
109        -1.4948121534e-01
110         0.0000000000e+00
111         7.9448372952e-02
112        -3.6626675399e-02
113         0.0000000000e+00
114         0.0000000000e+00
115         1.4165142337e-01
 Sym= A2
 Ene=         1.0700462643e+01
 Spin= Alpha
 Occup=         0.0000000000e+00
  1         0.0000000000e+00
  2         0.0000000000e+00
  3         0.0000000000e+00
  4         0.0000000000e+00
  5         0.0000000000e+00
  6         0.0000000000e+00
  7         0.0000000000e+00
  8         0.0000000000e+00
  9         0.0000000000e+00
 10         0.0000000000e+00
 11         0.0000000000e+00
 12         0.0000000000e+00
 13         0.0000000000e+00
 14         0.0000000000e+00
 15         0.0000000000e+00
 16         0.0000000000e+00
 17         0.0000000000e+00
 18         0.0000000000e+00
 19         0.0000000000e+00
 20         0.0000000000e+00
 21         0.0000000000e+00
 22         4.8029902828e-01
 23         0.0000000000e+00
 24         0.0000000000e+00
 25         0.0000000000e+00
 26         0.0000000000e+00
 27        -2.8685331253e-02
 28         0.0000000000e+00
 29         0.0000000000e+00
 30         0.0000000000e+00
 31         0.0000000000e+00
 32         7.4116542887e-01
 33         0.0000000000e+00
 34         0.0000000000e+00
 35         0.0000000000e+00
 36         0.0000000000e+00
 37         8.2164901388e-03
 38         0.0000000000e+00
 39         0.0000000000e+00
 40         0.0000000000e+00
 41         0.0000000000e+00
 42         0.0000000000e+00
 43         0.0000000000e+00
 44        -8.0894251130e-01
 45         0.0000000000e+00
 46         0.0000000000e+00
 47         0.0000000000e+00
 48         0.0000000000e+00
 49         0.0000000000e+00
 50         0.0000000000e+00
 51         9.8045821962e-01
 52         0.0000000000e+00
 53         0.0000000000e+00
 54         0.0000000000e+00
 55        -3.1605795008e-01
 56         0.0000000000e+00
 57         0.0000000000e+00
 58         0.0000000000e+00
 59         0.0000000000e+00
 60         1.3479837188e-02
 61         0.0000000000e+00
 62         0.0000000000e+00
 63        -5.9290601024e-01
 64         0.0000000000e+00
 65         0.0000000000e+00
 66        -1.6817667847e-01
 67         0.0000000000e+00
 68         0.0000000000e+00
 69         0.0000000000e+00
 70        -1.4345556039e-01
 71         0.0000000000e+00
 72         0.0000000000e+00
 73         4.6306565347e-01
 74         0.0000000000e+00
 75        -1.3062308432e-01
 76         0.0000000000e+00
 77         0.0000000000e+00
 78         2.2647522363e-01
 79         0.0000000000e+00
 80         1.6274016006e-01
 81         0.0000000000e+00
 82         0.0000000000e+00
 83         1.2433623913e-01
 84         3.0048830167e-01
 85         0.0000000000e+00
 86         0.0000000000e+00
 87         0.0000000000e+00
 88         0.0000000000e+00
 89         0.0000000000e+00
 90        -1.3479837188e-02
 91         0.0000000000e+00
 92         0.0000000000e+00
 93         5.9290601024e-01
 94         0.0000000000e+00
 95         0.0000000000e+00
 96         1.6817667847e-01
 97         0.0000000000e+00
 98         0.0000000000e+00
 99         0.0000000000e+00
100         1.4345556039e-01
101         0.0000000000e+00
102         0.0000000000e+00
103         4.6306565347e-01
104         0.0000000000e+00
105         1.3062308432e-01
106         0.0000000000e+00
107         0.0000000000e+00
108         2.2647522363e-01
109         0.0000000000e+00
110        -1.6274016006e-01
111         0.0000000000e+00
112         0.0000000000e+00
113         1.2433623913e-01
114        -3.0048830167e-01
115         0.0000000000e+00
 Sym= A1
 Ene=         1.0945387601e+01
 Spin= Alpha
 Occup=         0.0000000000e+00
  1         4.7046630935e-02
  2         5.3124568073e-02
  3         8.6262374695e-01
  4        -3.5546161426e+00
  5        -1.2760693857e+00
  6         0.0000000000e+00
  7         0.0000000000e+00
  8        -7.0997423439e-01
  9         0.0000000000e+00
 10         0.0000000000e+00
 11         1.0512674237e+00
 12         0.0000000000e+00
 13         0.0000000000e+00
 14         1.3504205091e+00
 15         0.0000000000e+00
 16         0.0000000000e+00
 17         4.0020951562e-01
 18        -1.1863928944e-01
 19         0.0000000000e+00
 20         0.0000000000e+00
 21        -1.0526163379e-02
 22         0.0000000000e+00
 23        -2.4196244988e-02
 24         0.0000000000e+00
 25         0.0000000000e+00
 26         4.2652967946e-01
 27         0.0000000000e+00
 28        -1.1077954813e-01
 29         0.0000000000e+00
 30         0.0000000000e+00
 31         5.8226859822e-01
 32         0.0000000000e+00
 33        -1.9722389868e-01
 34         0.0000000000e+00
 35         0.0000000000e+00
 36         8.6457870268e-01
 37         0.0000000000e+00
 38         0.0000000000e+00
 39         0.0000000000e+00
 40        -7.6156494309e-02
 41         0.0000000000e+00
 42         0.0000000000e+00
 43        -8.1700542169e-01
 44         0.0000000000e+00
 45         0.0000000000e+00
 46         0.0000000000e+00
 47         3.9072711533e-02
 48         0.0000000000e+00
 49         0.0000000000e+00
 50         1.4472428908e-01
 51         0.0000000000e+00
 52         0.0000000000e+00
 53         0.0000000000e+00
 54         5.1961686807e-02
 55         0.0000000000e+00
 56        -4.2540169766e-01
 57         1.5283055435e+00
 58         1.1285233375e+00
 59        -3.9121140005e-02
 60         0.0000000000e+00
 61         2.9821588447e-01
 62        -2.0231197112e-01
 63         0.0000000000e+00
 64        -1.2791597603e+00
 65         8.4170275685e-01
 66         0.0000000000e+00
 67        -3.0423697651e-01
 68         1.7522835204e-01
 69        -8.3287859184e-02
 70         0.0000000000e+00
 71        -1.0580439737e-01
 72        -9.5056713802e-02
 73         0.0000000000e+00
 74        -2.3606127518e-04
 75         0.0000000000e+00
 76        -4.1653063459e-01
 77        -3.6329885677e-01
 78         0.0000000000e+00
 79        -1.5284628397e-01
 80         0.0000000000e+00
 81        -9.4110841500e-03
 82        -1.4126003049e-01
 83         0.0000000000e+00
 84         0.0000000000e+00
 85         1.4854976551e-01
 86        -4.2540169766e-01
 87         1.5283055435e+00
 88         1.1285233375e+00
 89        -3.9121140005e-02
 90         0.0000000000e+00
 91        -2.9821588447e-01
 92        -2.0231197112e-01
 93         0.0000000000e+00
 94         1.2791597603e+00
 95         8.4170275685e-01
 96         0.0000000000e+00
 97         3.0423697651e-01
 98         1.7522835204e-01
 99        -8.3287859184e-02
100         0.0000000000e+00
101         1.0580439737e-01
102        -9.5056713802e-02
103         0.0000000000e+00
104        -2.3606127518e-04
105         0.0000000000e+00
106         4.1653063459e-01
107        -3.6329885677e-01
108         0.0000000000e+00
109        -1.5284628397e-01
110         0.0000000000e+00
111         9.4110841500e-03
112        -1.4126003049e-01
113         0.0000000000e+00
114         0.0000000000e+00
115        -1.4854976551e-01
 Sym= B2
 Ene=         1.1087679735e+01
 Spin= Alpha
 Occup=         0.0000000000e+00
  1         0.0000000000e+00
  2         0.0000000000e+00
  3         0.0000000000e+00
  4         0.0000000000e+00
  5         0.0000000000e+00
  6         0.0000000000e+00
  7         5.3515874970e-01
  8         0.0000000000e+00
  9         0.0000000000e+00
 10        -8.2704847956e-01
 11         0.0000000000e+00
 12         0.0000000000e+00
 13        -1.0766121554e+00
 14         0.0000000000e+00
 15         0.0000000000e+00
 16        -2.6285936618e-01
 17         0.0000000000e+00
 18         0.0000000000e+00
 19         0.0000000000e+00
 20         4.0436825672e-03
 21         0.0000000000e+00
 22         0.0000000000e+00
 23         0.0000000000e+00
 24         0.0000000000e+00
 25         4.0634864051e-01
 26         0.0000000000e+00
 27         0.0000000000e+00
 28         0.0000000000e+00
 29         0.0000000000e+00
 30         4.4474022294e-01
 31         0.0000000000e+00
 32         0.0000000000e+00
 33         0.0000000000e+00
 34         0.0000000000e+00
 35         3.1427585343e-01
 36         0.0000000000e+00
 37         0.0000000000e+00
 38         0.0000000000e+00
 39        -9.9864151148e-01
 40         0.0000000000e+00
 41         0.0000000000e+00
 42        -1.7032525226e-01
 43         0.0000000000e+00
 44         0.0000000000e+00
 45         0.0000000000e+00
 46         7.6008552933e-01
 47         0.0000000000e+00
 48         0.0000000000e+00
 49         8.3505771653e-03
 50         0.0000000000e+00
 51         0.0000000000e+00
 52         0.0000000000e+00
 53        -1.5503390748e-01
 54         0.0000000000e+00
 55         0.0000000000e+00
 56        -2.5557811151e-01
 57         1.0238786088e+00
 58         4.0315426124e-01
 59        -1.2102171038e-02
 60         0.0000000000e+00
 61         1.4401131221e-01
 62        -1.3667532851e-01
 63         0.0000000000e+00
 64        -6.8177920972e-01
 65         6.1123631781e-01
 66         0.0000000000e+00
 67        -1.5873110109e-02
 68         7.6892503050e-02
 69         1.3315204163e-02
 70         0.0000000000e+00
 71        -9.8136180546e-02
 72        -5.5685879609e-02
 73         0.0000000000e+00
 74         1.3815087360e-01
 75         0.0000000000e+00
 76        -2.2523069293e-01
 77        -1.8613581937e-01
 78         0.0000000000e+00
 79         1.2668485034e-02
 80         0.0000000000e+00
 81        -9.6495160308e-02
 82        -1.5261959354e-01
 83         0.0000000000e+00
 84         0.0000000000e+00
 85         7.8467337627e-02
 86         2.5557811151e-01
 87        -1.0238786088e+00
 88        -4.0315426124e-01
 89         1.2102171038e-02
 90         0.0000000000e+00
 91         1.4401131221e-01
 92         1.3667532851e-01
 93         0.0000000000e+00
 94        -6.8177920972e-01
 95        -6.1123631781e-01
 96         0.0000000000e+00
 97        -1.5873110109e-02
 98        -7.6892503050e-02
 99        -1.3315204163e-02
100         0.0000000000e+00
101        -9.8136180546e-02
102         5.5685879609e-02
103         0.0000000000e+00
104        -1.3815087360e-01
105         0.0000000000e+00
106        -2.2523069293e-01
107         1.8613581937e-01
108         0.0000000000e+00
109        -1.2668485034e-02
110         0.0000000000e+00
111        -9.6495160308e-02
112         1.5261959354e-01
113         0.0000000000e+00
114         0.0000000000e+00
115         7.8467337627e-02
 Sym= B1
 Ene=         1.1140731949e+01
 Spin= Alpha
 Occup=         0.0000000000e+00
  1         0.0000000000e+00
  2         0.0000000000e+00
  3         0.0000000000e+00
  4         0.0000000000e+00
  5         0.0000000000e+00
  6         1.4832772641e-01
  7         0.0000000000e+00
  8         0.0000000000e+00
  9         1.7687201609e-02
 10         0.0000000000e+00
 11         0.0000000000e+00
 12        -1.2811514310e+00
 13         0.0000000000e+00
 14         0.0000000000e+00
 15        -2.2548245398e-01
 16         0.0000000000e+00
 17         0.0000000000e+00
 18         0.0000000000e+00
 19         6.3584911132e-01
 20         0.0000000000e+00
 21         0.0000000000e+00
 22         0.0000000000e+00
 23         0.0000000000e+00
 24        -1.9997960788e-01
 25         0.0000000000e+00
 26         0.0000000000e+00
 27         0.0000000000e+00
 28         0.0000000000e+00
 29         8.7022187384e-01
 30         0.0000000000e+00
 31         0.0000000000e+00
 32         0.0000000000e+00
 33         0.0000000000e+00
 34         2.9088151480e-01
 35         0.0000000000e+00
 36         0.0000000000e+00
 37         0.0000000000e+00
 38        -1.8282857219e-01
 39         0.0000000000e+00
 40         0.0000000000e+00
 41        -2.8305038025e-01
 42         0.0000000000e+00
 43         0.0000000000e+00
 44         0.0000000000e+00
 45         8.9556519652e-01
 46         0.0000000000e+00
 47         0.0000000000e+00
 48        -1.8966881312e-01
 49         0.0000000000e+00
 50         0.0000000000e+00
 51         0.0000000000e+00
 52        -9.7760371502e-01
 53         0.0000000000e+00
 54         0.0000000000e+00
 55         0.0000000000e+00
 56         0.0000000000e+00
 57         0.0000000000e+00
 58         0.0000000000e+00
 59         0.0000000000e+00
 60        -5.0847456990e-02
 61         0.0000000000e+00
 62         0.0000000000e+00
 63         7.6304396179e-01
 64         0.0000000000e+00
 65         0.0000000000e+00
 66         3.0560919296e-01
 67         0.0000000000e+00
 68         0.0000000000e+00
 69         0.0000000000e+00
 70         3.3554584052e-01
 71         0.0000000000e+00
 72         0.0000000000e+00
 73        -3.2568565697e-01
 74         0.0000000000e+00
 75         2.3733004552e-01
 76         0.0000000000e+00
 77         0.0000000000e+00
 78        -3.9892456497e-01
 79         0.0000000000e+00
 80         1.3249110775e-01
 81         0.0000000000e+00
 82         0.0000000000e+00
 83        -2.7546645586e-01
 84        -1.4770779025e-01
 85         0.0000000000e+00
 86         0.0000000000e+00
 87         0.0000000000e+00
 88         0.0000000000e+00
 89         0.0000000000e+00
 90        -5.0847456990e-02
 91         0.0000000000e+00
 92         0.0000000000e+00
 93         7.6304396179e-01
 94         0.0000000000e+00
 95         0.0000000000e+00
 96         3.0560919296e-01
 97         0.0000000000e+00
 98         0.0000000000e+00
 99         0.0000000000e+00
100         3.3554584052e-01
101         0.0000000000e+00
102         0.0000000000e+00
103         3.2568565697e-01
104         0.0000000000e+00
105         2.3733004552e-01
106         0.0000000000e+00
107         0.0000000000e+00
108         3.9892456497e-01
109         0.0000000000e+00
110         1.3249110775e-01
111         0.0000000000e+00
112         0.0000000000e+00
113         2.7546645586e-01
114        -1.4770779025e-01
115         0.0000000000e+00
 Sym= B1
 Ene=         1.1311115186e+01
 Spin= Alpha
 Occup=         0.0000000000e+00
  1         0.0000000000e+00
  2         0.0000000000e+00
  3         0.0000000000e+00
  4         0.0000000000e+00
  5         0.0000000000e+00
  6         1.1186246101e-01
  7         0.0000000000e+00
  8         0.0000000000e+00
  9        -1.5263761433e-01
 10         0.0000000000e+00
 11         0.0000000000e+00
 12         7.8074216257e-02
 13         0.0000000000e+00
 14         0.0000000000e+00
 15         2.5522467135e-02
 16         0.0000000000e+00
 17         0.0000000000e+00
 18         0.0000000000e+00
 19         1.7054899780e-01
 20         0.0000000000e+00
 21         0.0000000000e+00
 22         0.0000000000e+00
 23         0.0000000000e+00
 24        -8.9554548734e-02
 25         0.0000000000e+00
 26         0.0000000000e+00
 27         0.0000000000e+00
 28         0.0000000000e+00
 29        -1.6445440183e-01
 30         0.0000000000e+00
 31         0.0000000000e+00
 32         0.0000000000e+00
 33         0.0000000000e+00
 34        -1.1260460448e+00
 35         0.0000000000e+00
 36         0.0000000000e+00
 37         0.0000000000e+00
 38        -2.3265326961e-01
 39         0.0000000000e+00
 40         0.0000000000e+00
 41         7.2054223364e-01
 42         0.0000000000e+00
 43         0.0000000000e+00
 44         0.0000000000e+00
 45         3.1389233580e-01
 46         0.0000000000e+00
 47         0.0000000000e+00
 48        -2.2230877241e-01
 49         0.0000000000e+00
 50         0.0000000000e+00
 51         0.0000000000e+00
 52        -1.4493643313e-01
 53         0.0000000000e+00
 54         0.0000000000e+00
 55         0.0000000000e+00
 56         0.0000000000e+00
 57         0.0000000000e+00
 58         0.0000000000e+00
 59         0.0000000000e+00
 60         4.8566899813e-02
 61         0.0000000000e+00
 62         0.0000000000e+00
 63        -1.0560296674e-02
 64         0.0000000000e+00
 65         0.0000000000e+00
 66        -3.3458132739e-02
 67         0.0000000000e+00
 68         0.0000000000e+00
 69         0.0000000000e+00
 70         5.4980239814e-02
 71         0.0000000000e+00
 72         0.0000000000e+00
 73        -9.5577262055e-02
 74         0.0000000000e+00
 75         1.5661688335e-01
 76         0.0000000000e+00
 77         0.0000000000e+00
 78         1.7040155070e-01
 79         0.0000000000e+00
 80         1.0412468405e-01
 81         0.0000000000e+00
 82         0.0000000000e+00
 83        -1.1468215790e-01
 84         8.7570609456e-02
 85         0.0000000000e+00
 86         0.0000000000e+00
 87         0.0000000000e+00
 88         0.0000000000e+00
 89         0.0000000000e+00
 90         4.8566899813e-02
 91         0.0000000000e+00
 92         0.0000000000e+00
 93        -1.0560296674e-02
 94         0.0000000000e+00
 95         0.0000000000e+00
 96        -3.3458132739e-02
 97         0.0000000000e+00
 98         0.0000000000e+00
 99         0.0000000000e+00
100         5.4980239814e-02
101         0.0000000000e+00
102         0.0000000000e+00
103         9.5577262055e-02
104         0.0000000000e+00
105         1.5661688335e-01
106         0.0000000000e+00
107         0.0000000000e+00
108        -1.7040155070e-01
109         0.0000000000e+00
110         1.0412468405e-01
111         0.0000000000e+00
112         0.0000000000e+00
113         1.1468215790e-01
114         8.7570609456e-02
115         0.0000000000e+00
 Sym= A1
 Ene=         1.1451961680e+01
 Spin= Alpha
 Occup=         0.0000000000e+00
  1         4.5887191572e-02
  2         1.2913780757e-01
  3         3.5742425148e-01
  4         1.1783981352e+00
  5        -4.9478827406e-01
  6         0.0000000000e+00
  7         0.0000000000e+00
  8         2.9893239362e-01
  9         0.0000000000e+00
 10         0.0000000000e+00
 11        -8.6844395196e-01
 12         0.0000000000e+00
 13         0.0000000000e+00
 14         9.3186664848e-01
 15         0.0000000000e+00
 16         0.0000000000e+00
 17         3.0775782743e-01
 18        -3.7340773701e-01
 19         0.0000000000e+00
 20         0.0000000000e+00
 21         3.4989974304e-01
 22         0.0000000000e+00
 23         1.8886889206e-01
 24         0.0000000000e+00
 25         0.0000000000e+00
 26        -4.4666776126e-01
 27         0.0000000000e+00
 28        -8.8756830684e-01
 29         0.0000000000e+00
 30         0.0000000000e+00
 31         4.2259031310e-02
 32         0.0000000000e+00
 33        -6.2352515526e-01
 34         0.0000000000e+00
 35         0.0000000000e+00
 36         1.0715667890e-01
 37         0.0000000000e+00
 38         0.0000000000e+00
 39         0.0000000000e+00
 40         3.1390265816e-01
 41         0.0000000000e+00
 42         0.0000000000e+00
 43        -4.4336844282e-01
 44         0.0000000000e+00
 45         0.0000000000e+00
 46         0.0000000000e+00
 47         4.5030614575e-01
 48         0.0000000000e+00
 49         0.0000000000e+00
 50         6.9249083053e-01
 51         0.0000000000e+00
 52         0.0000000000e+00
 53         0.0000000000e+00
 54        -1.4257536567e-02
 55         0.0000000000e+00
 56         2.7115305467e-01
 57         1.8899477140e-01
 58        -3.2237341035e-01
 59         6.6203365735e-02
 60         0.0000000000e+00
 61        -4.5212620372e-01
 62         4.3867366821e-01
 63         0.0000000000e+00
 64         2.0781980631e-01
 65        -7.8689168433e-01
 66         0.0000000000e+00
 67         3.0857768402e-02
 68        -3.3465063962e-01
 69        -1.7471894820e-01
 70         0.0000000000e+00
 71        -1.3715786937e-01
 72        -1.3560516052e-01
 73         0.0000000000e+00
 74        -2.1557573443e-01
 75         0.0000000000e+00
 76         5.7162630813e-01
 77         8.3229296519e-02
 78         0.0000000000e+00
 79        -3.9598481128e-02
 80         0.0000000000e+00
 81         1.2518668678e-01
 82         1.1110774102e-01
 83         0.0000000000e+00
 84         0.0000000000e+00
 85        -6.6246219850e-02
 86         2.7115305467e-01
 87         1.8899477140e-01
 88        -3.2237341035e-01
 89         6.6203365735e-02
 90         0.0000000000e+00
 91         4.5212620372e-01
 92         4.3867366821e-01
 93         0.0000000000e+00
 94        -2.0781980631e-01
 95        -7.8689168433e-01
 96         0.0000000000e+00
 97        -3.0857768402e-02
 98        -3.3465063962e-01
 99        -1.7471894820e-01
100         0.0000000000e+00
101         1.3715786937e-01
102        -1.3560516052e-01
103         0.0000000000e+00
104        -2.1557573443e-01
105         0.0000000000e+00
106        -5.7162630813e-01
107         8.3229296519e-02
108         0.0000000000e+00
109        -3.9598481128e-02
110         0.0000000000e+00
111        -1.2518668678e-01
112         1.1110774102e-01
113         0.0000000000e+00
114         0.0000000000e+00
115         6.6246219850e-02
 Sym= B1
 Ene=         1.1634790193e+01
 Spin= Alpha
 Occup=         0.0000000000e+00
  1         0.0000000000e+00
  2         0.0000000000e+00
  3         0.0000000000e+00
  4         0.0000000000e+00
  5         0.0000000000e+00
  6         3.4110160780e-01
  7         0.0000000000e+00
  8         0.0000000000e+00
  9        -5.7278514742e-01
 10         0.0000000000e+00
 11         0.0000000000e+00
 12         6.1356792353e-01
 13         0.0000000000e+00
 14         0.0000000000e+00
 15         9.5674652171e-02
 16         0.0000000000e+00
 17         0.0000000000e+00
 18         0.0000000000e+00
 19         3.1403161761e-01
 20         0.0000000000e+00
 21         0.0000000000e+00
 22         0.0000000000e+00
 23         0.0000000000e+00
 24        -1.4012786680e-01
 25         0.0000000000e+00
 26         0.0000000000e+00
 27         0.0000000000e+00
 28         0.0000000000e+00
 29        -2.0912076722e-01
 30         0.0000000000e+00
 31         0.0000000000e+00
 32         0.0000000000e+00
 33         0.0000000000e+00
 34        -1.5505522347e-01
 35         0.0000000000e+00
 36         0.0000000000e+00
 37         0.0000000000e+00
 38         1.1265738658e+00
 39         0.0000000000e+00
 40         0.0000000000e+00
 41         7.1576083565e-02
 42         0.0000000000e+00
 43         0.0000000000e+00
 44         0.0000000000e+00
 45        -7.0555610102e-01
 46         0.0000000000e+00
 47         0.0000000000e+00
 48         2.0247583404e-02
 49         0.0000000000e+00
 50         0.0000000000e+00
 51         0.0000000000e+00
 52         8.0635287275e-02
 53         0.0000000000e+00
 54         0.0000000000e+00
 55         0.0000000000e+00
 56         0.0000000000e+00
 57         0.0000000000e+00
 58         0.0000000000e+00
 59         0.0000000000e+00
 60         9.0295357861e-03
 61         0.0000000000e+00
 62         0.0000000000e+00
 63        -2.2466298728e-01
 64         0.0000000000e+00
 65         0.0000000000e+00
 66        -1.4167839608e-01
 67         0.0000000000e+00
 68         0.0000000000e+00
 69         0.0000000000e+00
 70         4.9963262325e-02
 71         0.0000000000e+00
 72         0.0000000000e+00
 73        -6.3666458183e-02
 74         0.0000000000e+00
 75        -1.6850624456e-01
 76         0.0000000000e+00
 77         0.0000000000e+00
 78         1.3625218051e-01
 79         0.0000000000e+00
 80        -9.2082533868e-03
 81         0.0000000000e+00
 82         0.0000000000e+00
 83        -1.2223402647e-01
 84        -9.2150300392e-02
 85         0.0000000000e+00
 86         0.0000000000e+00
 87         0.0000000000e+00
 88         0.0000000000e+00
 89         0.0000000000e+00
 90         9.0295357861e-03
 91         0.0000000000e+00
 92         0.0000000000e+00
 93        -2.2466298728e-01
 94         0.0000000000e+00
 95         0.0000000000e+00
 96        -1.4167839608e-01
 97         0.0000000000e+00
 98         0.0000000000e+00
 99         0.0000000000e+00
100         4.9963262325e-02
101         0.0000000000e+00
102         0.0000000000e+00
103         6.3666458183e-02
104         0.0000000000e+00
105        -1.6850624456e-01
106         0.0000000000e+00
107         0.0000000000e+00
108        -1.3625218051e-01
109         0.0000000000e+00
110        -9.2082533868e-03
111         0.0000000000e+00
112         0.0000000000e+00
113         1.2223402647e-01
114        -9.2150300392e-02
115         0.0000000000e+00
 Sym= A1
 Ene=         1.1681725747e+01
 Spin= Alpha
 Occup=         0.0000000000e+00
  1         4.9039782952e-02
  2         7.3605700546e-02
  3         5.4182135200e-01
  4        -1.5522694910e+00
  5        -1.3201271473e+00
  6         0.0000000000e+00
  7         0.0000000000e+00
  8        -4.3873373088e-01
  9         0.0000000000e+00
 10         0.0000000000e+00
 11         6.2791288398e-01
 12         0.0000000000e+00
 13         0.0000000000e+00
 14         2.8522775872e-01
 15         0.0000000000e+00
 16         0.0000000000e+00
 17         2.2769459486e-01
 18        -4.3736544427e-01
 19         0.0000000000e+00
 20         0.0000000000e+00
 21         2.4236192573e-01
 22         0.0000000000e+00
 23         2.4209630425e-01
 24         0.0000000000e+00
 25         0.0000000000e+00
 26        -3.4709574288e-02
 27         0.0000000000e+00
 28         5.3827604818e-01
 29         0.0000000000e+00
 30         0.0000000000e+00
 31         6.9717753050e-01
 32         0.0000000000e+00
 33         8.7789227577e-01
 34         0.0000000000e+00
 35         0.0000000000e+00
 36        -1.2467652754e-01
 37         0.0000000000e+00
 38         0.0000000000e+00
 39         0.0000000000e+00
 40        -9.8517815928e-01
 41         0.0000000000e+00
 42         0.0000000000e+00
 43        -3.8732383736e-01
 44         0.0000000000e+00
 45         0.0000000000e+00
 46         0.0000000000e+00
 47         5.0841782467e-01
 48         0.0000000000e+00
 49         0.0000000000e+00
 50         3.3856805446e-01
 51         0.0000000000e+00
 52         0.0000000000e+00
 53         0.0000000000e+00
 54         1.3393527275e-01
 55         0.0000000000e+00
 56         2.7823352764e-02
 57         7.3041655893e-01
 58         7.5757071117e-01
 59         3.8835321256e-02
 60         0.0000000000e+00
 61        -2.7136447648e-01
 62        -1.6065455448e-02
 63         0.0000000000e+00
 64        -7.1465878234e-02
 65         5.5841681277e-01
 66         0.0000000000e+00
 67        -2.1966954750e-01
 68         3.1500141591e-01
 69        -1.8971612229e-01
 70         0.0000000000e+00
 71        -1.3221898349e-01
 72        -9.3992977930e-02
 73         0.0000000000e+00
 74         1.4440176107e-01
 75         0.0000000000e+00
 76        -2.9601086830e-01
 77         1.3746159838e-01
 78         0.0000000000e+00
 79        -2.7845749983e-01
 80         0.0000000000e+00
 81         3.7887752901e-02
 82        -1.1254019281e-01
 83         0.0000000000e+00
 84         0.0000000000e+00
 85        -8.0725377386e-02
 86         2.7823352764e-02
 87         7.3041655893e-01
 88         7.5757071117e-01
 89         3.8835321256e-02
 90         0.0000000000e+00
 91         2.7136447648e-01
 92        -1.6065455448e-02
 93         0.0000000000e+00
 94         7.1465878234e-02
 95         5.5841681277e-01
 96         0.0000000000e+00
 97         2.1966954750e-01
 98         3.1500141591e-01
 99        -1.8971612229e-01
100         0.0000000000e+00
101         1.3221898349e-01
102        -9.3992977930e-02
103         0.0000000000e+00
104         1.4440176107e-01
105         0.0000000000e+00
106         2.9601086830e-01
107         1.3746159838e-01
108         0.0000000000e+00
109        -2.7845749983e-01
110         0.0000000000e+00
111        -3.7887752901e-02
112        -1.1254019281e-01
113         0.0000000000e+00
114         0.0000000000e+00
115         8.0725377386e-02
 Sym= A2
 Ene=         1.1752075532e+01
 Spin= Alpha
 Occup=         0.0000000000e+00
  1         0.0000000000e+00
  2         0.0000000000e+00
  3         0.0000000000e+00
  4         0.0000000000e+00
  5         0.0000000000e+00
  6         0.0000000000e+00
  7         0.0000000000e+00
  8         0.0000000000e+00
  9         0.0000000000e+00
 10         0.0000000000e+00
 11         0.0000000000e+00
 12         0.0000000000e+00
 13         0.0000000000e+00
 14         0.0000000000e+00
 15         0.0000000000e+00
 16         0.0000000000e+00
 17         0.0000000000e+00
 18         0.0000000000e+00
 19         0.0000000000e+00
 20         0.0000000000e+00
 21         0.0000000000e+00
 22         2.2917455857e-01
 23         0.0000000000e+00
 24         0.0000000000e+00
 25         0.0000000000e+00
 26         0.0000000000e+00
 27        -9.8357090167e-02
 28         0.0000000000e+00
 29         0.0000000000e+00
 30         0.0000000000e+00
 31         0.0000000000e+00
 32        -5.9873575072e-01
 33         0.0000000000e+00
 34         0.0000000000e+00
 35         0.0000000000e+00
 36         0.0000000000e+00
 37        -1.1992248118e+00
 38         0.0000000000e+00
 39         0.0000000000e+00
 40         0.0000000000e+00
 41         0.0000000000e+00
 42         0.0000000000e+00
 43         0.0000000000e+00
 44         9.2712257815e-01
 45         0.0000000000e+00
 46         0.0000000000e+00
 47         0.0000000000e+00
 48         0.0000000000e+00
 49         0.0000000000e+00
 50         0.0000000000e+00
 51        -1.9300882117e-01
 52         0.0000000000e+00
 53         0.0000000000e+00
 54         0.0000000000e+00
 55         8.5202781370e-02
 56         0.0000000000e+00
 57         0.0000000000e+00
 58         0.0000000000e+00
 59         0.0000000000e+00
 60        -4.0532694892e-02
 61         0.0000000000e+00
 62         0.0000000000e+00
 63         4.1391946487e-01
 64         0.0000000000e+00
 65         0.0000000000e+00
 66         1.8474175688e-01
 67         0.0000000000e+00
 68         0.0000000000e+00
 69         0.0000000000e+00
 70        -3.9017109868e-02
 71         0.0000000000e+00
 72         0.0000000000e+00
 73         6.8731677692e-04
 74         0.0000000000e+00
 75         1.7003824382e-01
 76         0.0000000000e+00
 77         0.0000000000e+00
 78        -2.6268771159e-01
 79         0.0000000000e+00
 80        -7.2903348383e-02
 81         0.0000000000e+00
 82         0.0000000000e+00
 83         6.1379390655e-02
 84         5.8451098120e-02
 85         0.0000000000e+00
 86         0.0000000000e+00
 87         0.0000000000e+00
 88         0.0000000000e+00
 89         0.0000000000e+00
 90         4.0532694892e-02
 91         0.0000000000e+00
 92         0.0000000000e+00
 93        -4.1391946487e-01
 94         0.0000000000e+00
 95         0.0000000000e+00
 96        -1.8474175688e-01
 97         0.0000000000e+00
 98         0.0000000000e+00
 99         0.0000000000e+00
100         3.9017109868e-02
101         0.0000000000e+00
102         0.0000000000e+00
103         6.8731677692e-04
104         0.0000000000e+00
105        -1.7003824382e-01
106         0.0000000000e+00
107         0.0000000000e+00
108        -2.6268771159e-01
109         0.0000000000e+00
110         7.2903348383e-02
111         0.0000000000e+00
112         0.0000000000e+00
113         6.1379390655e-02
114        -5.8451098120e-02
115         0.0000000000e+00
 Sym= B2
 Ene=         1.2012784654e+01
 Spin= Alpha
 Occup=         0.0000000000e+00
  1         0.0000000000e+00
  2         0.0000000000e+00
  3         0.0000000000e+00
  4         0.0000000000e+00
  5         0.0000000000e+00
  6         0.0000000000e+00
  7         1.8654250830e-01
  8         0.0000000000e+00
  9         0.0000000000e+00
 10        -4.6306114439e-01
 11         0.0000000000e+00
 12         0.0000000000e+00
 13         4.5361824313e-03
 14         0.0000000000e+00
 15         0.0000000000e+00
 16        -1.7930338400e-01
 17         0.0000000000e+00
 18         0.0000000000e+00
 19         0.0000000000e+00
 20        -6.5782195431e-02
 21         0.0000000000e+00
 22         0.0000000000e+00
 23         0.0000000000e+00
 24         0.0000000000e+00
 25         2.1950938481e-01
 26         0.0000000000e+00
 27         0.0000000000e+00
 28         0.0000000000e+00
 29         0.0000000000e+00
 30         6.5563704521e-01
 31         0.0000000000e+00
 32         0.0000000000e+00
 33         0.0000000000e+00
 34         0.0000000000e+00
 35         1.0555297927e+00
 36         0.0000000000e+00
 37         0.0000000000e+00
 38         0.0000000000e+00
 39         4.6474592762e-01
 40         0.0000000000e+00
 41         0.0000000000e+00
 42        -1.2641062016e+00
 43         0.0000000000e+00
 44         0.0000000000e+00
 45         0.0000000000e+00
 46        -5.5397175582e-01
 47         0.0000000000e+00
 48         0.0000000000e+00
 49         5.1098211386e-01
 50         0.0000000000e+00
 51         0.0000000000e+00
 52         0.0000000000e+00
 53         2.0318553170e-01
 54         0.0000000000e+00
 55         0.0000000000e+00
 56        -1.6332505237e-01
 57         4.6697295778e-01
 58         4.4162326676e-01
 59        -1.2273755679e-03
 60         0.0000000000e+00
 61         1.4985433768e-01
 62        -1.4061506981e-01
 63         0.0000000000e+00
 64        -7.4818300367e-01
 65        -2.2582687609e-01
 66         0.0000000000e+00
 67        -1.9717499745e-01
 68        -2.1595602610e-02
 69        -1.6428592345e-01
 70         0.0000000000e+00
 71         9.7840673179e-02
 72        -1.2328220852e-01
 73         0.0000000000e+00
 74        -3.5431951565e-01
 75         0.0000000000e+00
 76        -1.1034591868e-01
 77        -2.0383012872e-01
 78         0.0000000000e+00
 79        -5.2423632032e-02
 80         0.0000000000e+00
 81        -2.7035507551e-02
 82        -8.0248701687e-02
 83         0.0000000000e+00
 84         0.0000000000e+00
 85        -1.3722755373e-02
 86         1.6332505237e-01
 87        -4.6697295778e-01
 88        -4.4162326676e-01
 89         1.2273755679e-03
 90         0.0000000000e+00
 91         1.4985433768e-01
 92         1.4061506981e-01
 93         0.0000000000e+00
 94        -7.4818300367e-01
 95         2.2582687609e-01
 96         0.0000000000e+00
 97        -1.9717499745e-01
 98         2.1595602610e-02
 99         1.6428592345e-01
100         0.0000000000e+00
101         9.7840673179e-02
102         1.2328220852e-01
103         0.0000000000e+00
104         3.5431951565e-01
105         0.0000000000e+00
106        -1.1034591868e-01
107         2.0383012872e-01
108         0.0000000000e+00
109         5.2423632032e-02
110         0.0000000000e+00
111        -2.7035507551e-02
112         8.0248701687e-02
113         0.0000000000e+00
114         0.0000000000e+00
115        -1.3722755373e-02
 Sym= B2
 Ene=         1.2771082317e+01
 Spin= Alpha
 Occup=         0.0000000000e+00
  1         0.0000000000e+00
  2         0.0000000000e+00
  3         0.0000000000e+00
  4         0.0000000000e+00
  5         0.0000000000e+00
  6         0.0000000000e+00
  7         3.9786912663e-02
  8         0.0000000000e+00
  9         0.0000000000e+00
 10         4.9921179308e-01
 11         0.0000000000e+00
 12         0.0000000000e+00
 13        -2.6766956838e+00
 14         0.0000000000e+00
 15         0.0000000000e+00
 16        -2.3799162592e-01
 17         0.0000000000e+00
 18         0.0000000000e+00
 19         0.0000000000e+00
 20         1.0959466449e-01
 21         0.0000000000e+00
 22         0.0000000000e+00
 23         0.0000000000e+00
 24         0.0000000000e+00
 25        -3.0103703863e-01
 26         0.0000000000e+00
 27         0.0000000000e+00
 28         0.0000000000e+00
 29         0.0000000000e+00
 30         2.8628249677e-01
 31         0.0000000000e+00
 32         0.0000000000e+00
 33         0.0000000000e+00
 34         0.0000000000e+00
 35         4.0147710239e-01
 36         0.0000000000e+00
 37         0.0000000000e+00
 38         0.0000000000e+00
 39         1.1698414708e-01
 40         0.0000000000e+00
 41         0.0000000000e+00
 42         1.2302204031e+00
 43         0.0000000000e+00
 44         0.0000000000e+00
 45         0.0000000000e+00
 46         9.0190201029e-01
 47         0.0000000000e+00
 48         0.0000000000e+00
 49        -1.2109589150e+00
 50         0.0000000000e+00
 51         0.0000000000e+00
 52         0.0000000000e+00
 53        -4.8527200658e-01
 54         0.0000000000e+00
 55         0.0000000000e+00
 56        -3.7702535721e-02
 57         8.9167377294e-01
 58         2.3737454247e-01
 59         1.9824328424e-02
 60         0.0000000000e+00
 61        -3.2030464149e-01
 62         3.7367907860e-02
 63         0.0000000000e+00
 64         5.6324546134e-01
 65         1.1691851858e+00
 66         0.0000000000e+00
 67         1.0471470338e-01
 68         2.6265488341e-01
 69         5.6684369965e-01
 70         0.0000000000e+00
 71        -3.2921388311e-01
 72         2.3497786745e-01
 73         0.0000000000e+00
 74         7.1566467709e-01
 75         0.0000000000e+00
 76        -1.6994202961e-01
 77         4.9672238145e-01
 78         0.0000000000e+00
 79         2.6496136002e-01
 80         0.0000000000e+00
 81        -6.1327667076e-01
 82         7.9543374122e-02
 83         0.0000000000e+00
 84         0.0000000000e+00
 85        -3.1736774025e-01
 86         3.7702535721e-02
 87        -8.9167377294e-01
 88        -2.3737454247e-01
 89        -1.9824328424e-02
 90         0.0000000000e+00
 91        -3.2030464149e-01
 92        -3.7367907860e-02
 93         0.0000000000e+00
 94         5.6324546134e-01
 95        -1.1691851858e+00
 96         0.0000000000e+00
 97         1.0471470338e-01
 98        -2.6265488341e-01
 99        -5.6684369965e-01
100         0.0000000000e+00
101        -3.2921388311e-01
102        -2.3497786745e-01
103         0.0000000000e+00
104        -7.1566467709e-01
105         0.0000000000e+00
106        -1.6994202961e-01
107        -4.9672238145e-01
108         0.0000000000e+00
109        -2.6496136002e-01
110         0.0000000000e+00
111        -6.1327667076e-01
112        -7.9543374122e-02
113         0.0000000000e+00
114         0.0000000000e+00
115        -3.1736774025e-01
 Sym= A1
 Ene=         1.2893137059e+01
 Spin= Alpha
 Occup=         0.0000000000e+00
  1         1.2768855175e-01
  2        -5.6607680523e-02
  3        -8.0175495268e-01
  4        -9.8192869912e-01
  5         3.1459489987e-01
  6         0.0000000000e+00
  7         0.0000000000e+00
  8        -4.5175067521e-01
  9         0.0000000000e+00
 10         0.0000000000e+00
 11         1.2089705062e+00
 12         0.0000000000e+00
 13         0.0000000000e+00
 14        -7.7427921761e-01
 15         0.0000000000e+00
 16         0.0000000000e+00
 17         8.4407728566e-02
 18        -4.1102991483e-01
 19         0.0000000000e+00
 20         0.0000000000e+00
 21         7.7572061641e-01
 22         0.0000000000e+00
 23         4.5189132682e-01
 24         0.0000000000e+00
 25         0.0000000000e+00
 26        -2.9782880413e-01
 27         0.0000000000e+00
 28        -7.7725070984e-02
 29         0.0000000000e+00
 30         0.0000000000e+00
 31        -2.8209556828e-01
 32         0.0000000000e+00
 33        -4.1157899266e-01
 34         0.0000000000e+00
 35         0.0000000000e+00
 36        -6.4360896921e-01
 37         0.0000000000e+00
 38         0.0000000000e+00
 39         0.0000000000e+00
 40         4.1610707839e-01
 41         0.0000000000e+00
 42         0.0000000000e+00
 43         7.8500068599e-01
 44         0.0000000000e+00
 45         0.0000000000e+00
 46         0.0000000000e+00
 47        -2.7720467354e-01
 48         0.0000000000e+00
 49         0.0000000000e+00
 50        -3.7503763846e-01
 51         0.0000000000e+00
 52         0.0000000000e+00
 53         0.0000000000e+00
 54         1.0680527789e-01
 55         0.0000000000e+00
 56        -3.6831858295e-01
 57        -4.2902886286e-01
 58         6.6435681702e-01
 59        -1.2462908423e-01
 60         0.0000000000e+00
 61         4.7982643855e-01
 62        -3.6020861514e-01
 63         0.0000000000e+00
 64        -4.6269245250e-01
 65         4.3287888424e-01
 66         0.0000000000e+00
 67        -2.3841617960e-01
 68         1.6789885983e-01
 69         8.6145910815e-02
 70         0.0000000000e+00
 71        -9.8942783027e-02
 72        -2.9533126589e-02
 73         0.0000000000e+00
 74         6.4573823819e-02
 75         0.0000000000e+00
 76        -4.2651274364e-01
 77        -2.7128104214e-01
 78         0.0000000000e+00
 79        -7.1816627014e-02
 80         0.0000000000e+00
 81        -1.8791244764e-01
 82        -2.6465143623e-01
 83         0.0000000000e+00
 84         0.0000000000e+00
 85         1.1703181046e-01
 86        -3.6831858295e-01
 87        -4.2902886286e-01
 88         6.6435681702e-01
 89        -1.2462908423e-01
 90         0.0000000000e+00
 91        -4.7982643855e-01
 92        -3.6020861514e-01
 93         0.0000000000e+00
 94         4.6269245250e-01
 95         4.3287888424e-01
 96         0.0000000000e+00
 97         2.3841617960e-01
 98         1.6789885983e-01
 99         8.6145910815e-02
100         0.0000000000e+00
101         9.8942783027e-02
102        -2.9533126589e-02
103         0.0000000000e+00
104         6.4573823819e-02
105         0.0000000000e+00
106         4.2651274364e-01
107        -2.7128104214e-01
108         0.0000000000e+00
109        -7.1816627014e-02
110         0.0000000000e+00
111         1.8791244764e-01
112        -2.6465143623e-01
113         0.0000000000e+00
114         0.0000000000e+00
115        -1.1703181046e-01
 Sym= B1
 Ene=         1.3372292793e+01
 Spin= Alpha
 Occup=         0.0000000000e+00
  1         0.0000000000e+00
  2         0.0000000000e+00
  3         0.0000000000e+00
  4         0.0000000000e+00
  5         0.0000000000e+00
  6         1.7884460021e-01
  7         0.0000000000e+00
  8         0.0000000000e+00
  9        -3.6227367875e-02
 10         0.0000000000e+00
 11         0.0000000000e+00
 12        -1.8457806659e+00
 13         0.0000000000e+00
 14         0.0000000000e+00
 15        -4.5645716482e-03
 16         0.0000000000e+00
 17         0.0000000000e+00
 18         0.0000000000e+00
 19        -1.2131295407e+00
 20         0.0000000000e+00
 21         0.0000000000e+00
 22         0.0000000000e+00
 23         0.0000000000e+00
 24         1.5589724969e+00
 25         0.0000000000e+00
 26         0.0000000000e+00
 27         0.0000000000e+00
 28         0.0000000000e+00
 29         4.0711143175e-01
 30         0.0000000000e+00
 31         0.0000000000e+00
 32         0.0000000000e+00
 33         0.0000000000e+00
 34        -5.6370525368e-02
 35         0.0000000000e+00
 36         0.0000000000e+00
 37         0.0000000000e+00
 38         1.6889078773e-01
 39         0.0000000000e+00
 40         0.0000000000e+00
 41        -2.4070275956e-01
 42         0.0000000000e+00
 43         0.0000000000e+00
 44         0.0000000000e+00
 45         8.6871336471e-01
 46         0.0000000000e+00
 47         0.0000000000e+00
 48        -8.5773884880e-02
 49         0.0000000000e+00
 50         0.0000000000e+00
 51         0.0000000000e+00
 52        -8.0144870905e-01
 53         0.0000000000e+00
 54         0.0000000000e+00
 55         0.0000000000e+00
 56         0.0000000000e+00
 57         0.0000000000e+00
 58         0.0000000000e+00
 59         0.0000000000e+00
 60        -2.2082149529e-01
 61         0.0000000000e+00
 62         0.0000000000e+00
 63         1.1049900793e+00
 64         0.0000000000e+00
 65         0.0000000000e+00
 66         1.9139319190e-01
 67         0.0000000000e+00
 68         0.0000000000e+00
 69         0.0000000000e+00
 70         2.7055106874e-01
 71         0.0000000000e+00
 72         0.0000000000e+00
 73        -3.7242544754e-01
 74         0.0000000000e+00
 75         4.4786297319e-01
 76         0.0000000000e+00
 77         0.0000000000e+00
 78        -6.2517601044e-01
 79         0.0000000000e+00
 80         1.0320255476e-01
 81         0.0000000000e+00
 82         0.0000000000e+00
 83        -4.4455937110e-01
 84        -4.0676097013e-01
 85         0.0000000000e+00
 86         0.0000000000e+00
 87         0.0000000000e+00
 88         0.0000000000e+00
 89         0.0000000000e+00
 90        -2.2082149529e-01
 91         0.0000000000e+00
 92         0.0000000000e+00
 93         1.1049900793e+00
 94         0.0000000000e+00
 95         0.0000000000e+00
 96         1.9139319190e-01
 97         0.0000000000e+00
 98         0.0000000000e+00
 99         0.0000000000e+00
100         2.7055106874e-01
101         0.0000000000e+00
102         0.0000000000e+00
103         3.7242544754e-01
104         0.0000000000e+00
105         4.4786297319e-01
106         0.0000000000e+00
107         0.0000000000e+00
108         6.2517601044e-01
109         0.0000000000e+00
110         1.0320255476e-01
111         0.0000000000e+00
112         0.0000000000e+00
113         4.4455937110e-01
114        -4.0676097013e-01
115         0.0000000000e+00
 Sym= A2
 Ene=         1.3756456698e+01
 Spin= Alpha
 Occup=         0.0000000000e+00
  1         0.0000000000e+00
  2         0.0000000000e+00
  3         0.0000000000e+00
  4         0.0000000000e+00
  5         0.0000000000e+00
  6         0.0000000000e+00
  7         0.0000000000e+00
  8         0.0000000000e+00
  9         0.0000000000e+00
 10         0.0000000000e+00
 11         0.0000000000e+00
 12         0.0000000000e+00
 13         0.0000000000e+00
 14         0.0000000000e+00
 15         0.0000000000e+00
 16         0.0000000000e+00
 17         0.0000000000e+00
 18         0.0000000000e+00
 19         0.0000000000e+00
 20         0.0000000000e+00
 21         0.0000000000e+00
 22         1.3435148698e+00
 23         0.0000000000e+00
 24         0.0000000000e+00
 25         0.0000000000e+00
 26         0.0000000000e+00
 27        -1.8850031356e+00
 28         0.0000000000e+00
 29         0.0000000000e+00
 30         0.0000000000e+00
 31         0.0000000000e+00
 32        -6.6461231705e-01
 33         0.0000000000e+00
 34         0.0000000000e+00
 35         0.0000000000e+00
 36         0.0000000000e+00
 37         1.8432888430e-01
 38         0.0000000000e+00
 39         0.0000000000e+00
 40         0.0000000000e+00
 41         0.0000000000e+00
 42         0.0000000000e+00
 43         0.0000000000e+00
 44         1.0143463850e+00
 45         0.0000000000e+00
 46         0.0000000000e+00
 47         0.0000000000e+00
 48         0.0000000000e+00
 49         0.0000000000e+00
 50         0.0000000000e+00
 51        -3.9956875001e-01
 52         0.0000000000e+00
 53         0.0000000000e+00
 54         0.0000000000e+00
 55         4.9882409162e-01
 56         0.0000000000e+00
 57         0.0000000000e+00
 58         0.0000000000e+00
 59         0.0000000000e+00
 60        -2.1302970235e-01
 61         0.0000000000e+00
 62         0.0000000000e+00
 63         1.0825932159e+00
 64         0.0000000000e+00
 65         0.0000000000e+00
 66         2.0763962761e-01
 67         0.0000000000e+00
 68         0.0000000000e+00
 69         0.0000000000e+00
 70         2.4773122721e-01
 71         0.0000000000e+00
 72         0.0000000000e+00
 73        -3.6594863785e-01
 74         0.0000000000e+00
 75         4.4983663098e-01
 76         0.0000000000e+00
 77         0.0000000000e+00
 78        -6.2179180104e-01
 79         0.0000000000e+00
 80         9.7879468749e-02
 81         0.0000000000e+00
 82         0.0000000000e+00
 83        -4.6910617483e-01
 84        -3.8631212796e-01
 85         0.0000000000e+00
 86         0.0000000000e+00
 87         0.0000000000e+00
 88         0.0000000000e+00
 89         0.0000000000e+00
 90         2.1302970235e-01
 91         0.0000000000e+00
 92         0.0000000000e+00
 93        -1.0825932159e+00
 94         0.0000000000e+00
 95         0.0000000000e+00
 96        -2.0763962761e-01
 97         0.0000000000e+00
 98         0.0000000000e+00
 99         0.0000000000e+00
100        -2.4773122721e-01
101         0.0000000000e+00
102         0.0000000000e+00
103        -3.6594863785e-01
104         0.0000000000e+00
105        -4.4983663098e-01
106         0.0000000000e+00
107         0.0000000000e+00
108        -6.2179180104e-01
109         0.0000000000e+00
110        -9.7879468749e-02
111         0.0000000000e+00
112         0.0000000000e+00
113        -4.6910617483e-01
114         3.8631212796e-01
115         0.0000000000e+00
 Sym= A1
 Ene=         1.3778218968e+01
 Spin= Alpha
 Occup=         0.0000000000e+00
  1         7.5918516151e-02
  2         8.6858276051e-02
  3         5.7772752405e-01
  4        -1.9783792722e+00
  5        -6.4132123087e-01
  6         0.0000000000e+00
  7         0.0000000000e+00
  8        -3.2265486896e-01
  9         0.0000000000e+00
 10         0.0000000000e+00
 11         3.3544252601e-01
 12         0.0000000000e+00
 13         0.0000000000e+00
 14         2.2431477993e+00
 15         0.0000000000e+00
 16         0.0000000000e+00
 17         1.6956726514e-01
 18         1.2351878158e+00
 19         0.0000000000e+00
 20         0.0000000000e+00
 21         4.2032528417e-01
 22         0.0000000000e+00
 23        -1.7497287710e+00
 24         0.0000000000e+00
 25         0.0000000000e+00
 26        -4.2931094864e-01
 27         0.0000000000e+00
 28        -6.9584123098e-01
 29         0.0000000000e+00
 30         0.0000000000e+00
 31        -1.8379012178e-01
 32         0.0000000000e+00
 33        -5.8481564036e-02
 34         0.0000000000e+00
 35         0.0000000000e+00
 36        -2.2167834651e-01
 37         0.0000000000e+00
 38         0.0000000000e+00
 39         0.0000000000e+00
 40         4.0036834877e-01
 41         0.0000000000e+00
 42         0.0000000000e+00
 43        -1.4895383666e-01
 44         0.0000000000e+00
 45         0.0000000000e+00
 46         0.0000000000e+00
 47         2.4279820355e-01
 48         0.0000000000e+00
 49         0.0000000000e+00
 50         5.6082348554e-01
 51         0.0000000000e+00
 52         0.0000000000e+00
 53         0.0000000000e+00
 54         1.9334576272e-01
 55         0.0000000000e+00
 56        -2.4402812959e-01
 57         8.1442764397e-01
 58         5.8207021096e-01
 59        -2.2688630477e-02
 60         0.0000000000e+00
 61         1.7705722550e-01
 62         1.9394285836e-01
 63         0.0000000000e+00
 64        -1.2094783406e+00
 65        -4.5126255940e-01
 66         0.0000000000e+00
 67        -3.0119231402e-01
 68        -3.6464814249e-02
 69        -3.0493491225e-01
 70         0.0000000000e+00
 71        -4.3538510678e-02
 72        -3.1964191572e-01
 73         0.0000000000e+00
 74        -5.9016940484e-01
 75         0.0000000000e+00
 76         8.7123954028e-02
 77        -4.7473628807e-01
 78         0.0000000000e+00
 79        -2.2940429219e-01
 80         0.0000000000e+00
 81         4.5615042568e-01
 82        -8.9489476225e-02
 83         0.0000000000e+00
 84         0.0000000000e+00
 85         2.8387445111e-01
 86        -2.4402812959e-01
 87         8.1442764397e-01
 88         5.8207021096e-01
 89        -2.2688630477e-02
 90         0.0000000000e+00
 91        -1.7705722550e-01
 92         1.9394285836e-01
 93         0.0000000000e+00
 94         1.2094783406e+00
 95        -4.5126255940e-01
 96         0.0000000000e+00
 97         3.0119231402e-01
 98        -3.6464814249e-02
 99        -3.0493491225e-01
100         0.0000000000e+00
101         4.3538510678e-02
102        -3.1964191572e-01
103         0.0000000000e+00
104        -5.9016940484e-01
105         0.0000000000e+00
106        -8.7123954028e-02
107        -4.7473628807e-01
108         0.0000000000e+00
109        -2.2940429219e-01
110         0.0000000000e+00
111        -4.5615042568e-01
112        -8.9489476225e-02
113         0.0000000000e+00
114         0.0000000000e+00
115        -2.8387445111e-01
 Sym= B2
 Ene=         1.3840772514e+01
 Spin= Alpha
 Occup=         0.0000000000e+00
  1         0.0000000000e+00
  2         0.0000000000e+00
  3         0.0000000000e+00
  4         0.0000000000e+00
  5         0.0000000000e+00
  6         0.0000000000e+00
  7         1.0275444348e+00
  8         0.0000000000e+00
  9         0.0000000000e+00
 10        -2.5980173146e+00
 11         0.0000000000e+00
 12         0.0000000000e+00
 13         1.6003382419e+00
 14         0.0000000000e+00
 15         0.0000000000e+00
 16         3.4631522361e-01
 17         0.0000000000e+00
 18         0.0000000000e+00
 19         0.0000000000e+00
 20         8.0283025487e-01
 21         0.0000000000e+00
 22         0.0000000000e+00
 23         0.0000000000e+00
 24         0.0000000000e+00
 25        -5.8478666609e-02
 26         0.0000000000e+00
 27         0.0000000000e+00
 28         0.0000000000e+00
 29         0.0000000000e+00
 30        -1.2753989454e+00
 31         0.0000000000e+00
 32         0.0000000000e+00
 33         0.0000000000e+00
 34         0.0000000000e+00
 35        -3.9641336403e-01
 36         0.0000000000e+00
 37         0.0000000000e+00
 38         0.0000000000e+00
 39         4.3044607381e-01
 40         0.0000000000e+00
 41         0.0000000000e+00
 42         7.3595298505e-01
 43         0.0000000000e+00
 44         0.0000000000e+00
 45         0.0000000000e+00
 46        -3.8313140789e-01
 47         0.0000000000e+00
 48         0.0000000000e+00
 49        -9.7565668465e-02
 50         0.0000000000e+00
 51         0.0000000000e+00
 52         0.0000000000e+00
 53         2.0691106957e-01
 54         0.0000000000e+00
 55         0.0000000000e+00
 56        -2.9704323869e-01
 57        -7.8440057916e-01
 58         1.3910983869e-01
 59        -9.3852409825e-02
 60         0.0000000000e+00
 61         4.1954895664e-01
 62        -3.1406923626e-01
 63         0.0000000000e+00
 64        -3.1402642079e-01
 65         5.4297874728e-01
 66         0.0000000000e+00
 67        -1.4524124259e-01
 68         7.6418597703e-02
 69         7.6836781435e-02
 70         0.0000000000e+00
 71        -2.4005381994e-01
 72        -3.9656390002e-02
 73         0.0000000000e+00
 74         1.3024055496e-01
 75         0.0000000000e+00
 76        -5.1867620377e-01
 77        -3.5137890917e-01
 78         0.0000000000e+00
 79        -1.8948539722e-01
 80         0.0000000000e+00
 81        -2.8098316044e-01
 82        -3.8734509813e-01
 83         0.0000000000e+00
 84         0.0000000000e+00
 85         2.1276136217e-01
 86         2.9704323869e-01
 87         7.8440057916e-01
 88        -1.3910983869e-01
 89         9.3852409825e-02
 90         0.0000000000e+00
 91         4.1954895664e-01
 92         3.1406923626e-01
 93         0.0000000000e+00
 94        -3.1402642079e-01
 95        -5.4297874728e-01
 96         0.0000000000e+00
 97        -1.4524124259e-01
 98        -7.6418597703e-02
 99        -7.6836781435e-02
100         0.0000000000e+00
101        -2.4005381994e-01
102         3.9656390002e-02
103         0.0000000000e+00
104        -1.3024055496e-01
105         0.0000000000e+00
106        -5.1867620377e-01
107         3.5137890917e-01
108         0.0000000000e+00
109         1.8948539722e-01
110         0.0000000000e+00
111        -2.8098316044e-01
112         3.8734509813e-01
113         0.0000000000e+00
114         0.0000000000e+00
115         2.1276136217e-01
 Sym= A1
 Ene=         1.5659449989e+01
 Spin= Alpha
 Occup=         0.0000000000e+00
  1         1.8819842985e-01
  2         3.4821208675e-01
  3         3.5036156481e+00
  4        -1.0513465850e+01
  5        -4.9273030770e+00
  6         0.0000000000e+00
  7         0.0000000000e+00
  8        -5.5996699688e-01
  9         0.0000000000e+00
 10         0.0000000000e+00
 11         7.1127181082e-01
 12         0.0000000000e+00
 13         0.0000000000e+00
 14         4.9726026297e+00
 15         0.0000000000e+00
 16         0.0000000000e+00
 17         9.6211294702e-01
 18        -1.2162154151e-01
 19         0.0000000000e+00
 20         0.0000000000e+00
 21        -1.1536518032e+00
 22         0.0000000000e+00
 23         2.0857126958e-01
 24         0.0000000000e+00
 25         0.0000000000e+00
 26         2.5969950442e+00
 27         0.0000000000e+00
 28         1.2948134343e-01
 29         0.0000000000e+00
 30         0.0000000000e+00
 31         1.6470691259e+00
 32         0.0000000000e+00
 33        -2.6732719867e-01
 34         0.0000000000e+00
 35         0.0000000000e+00
 36        -5.3425552752e-01
 37         0.0000000000e+00
 38         0.0000000000e+00
 39         0.0000000000e+00
 40        -8.2593930943e-01
 41         0.0000000000e+00
 42         0.0000000000e+00
 43        -1.4083512624e+00
 44         0.0000000000e+00
 45         0.0000000000e+00
 46         0.0000000000e+00
 47         3.5241940490e-01
 48         0.0000000000e+00
 49         0.0000000000e+00
 50         4.0819723977e-01
 51         0.0000000000e+00
 52         0.0000000000e+00
 53         0.0000000000e+00
 54        -3.3084297951e-01
 55         0.0000000000e+00
 56        -9.1533900599e-01
 57         4.3304246578e+00
 58         3.7078882628e+00
 59        -2.1235469397e-02
 60         0.0000000000e+00
 61        -9.4177702492e-02
 62        -3.6443602192e-03
 63         0.0000000000e+00
 64        -2.7634288712e+00
 65         2.2528753424e+00
 66         0.0000000000e+00
 67        -1.2115068462e+00
 68         8.8271900948e-01
 69         4.7470060120e-02
 70         0.0000000000e+00
 71        -7.6040456618e-01
 72        -4.7437441838e-01
 73         0.0000000000e+00
 74         1.0558026671e-01
 75         0.0000000000e+00
 76        -9.3781853018e-01
 77        -5.5442044842e-01
 78         0.0000000000e+00
 79        -1.3944658456e-01
 80         0.0000000000e+00
 81        -2.3562392876e-01
 82        -2.9580768743e-01
 83         0.0000000000e+00
 84         0.0000000000e+00
 85         1.2905079289e-01
 86        -9.1533900599e-01
 87         4.3304246578e+00
 88         3.7078882628e+00
 89        -2.1235469397e-02
 90         0.0000000000e+00
 91         9.4177702492e-02
 92        -3.6443602192e-03
 93         0.0000000000e+00
 94         2.7634288712e+00
 95         2.2528753424e+00
 96         0.0000000000e+00
 97         1.2115068462e+00
 98         8.8271900948e-01
 99         4.7470060120e-02
100         0.0000000000e+00
101         7.6040456618e-01
102        -4.7437441838e-01
103         0.0000000000e+00
104         1.0558026671e-01
105         0.0000000000e+00
106         9.3781853018e-01
107        -5.5442044842e-01
108         0.0000000000e+00
109        -1.3944658456e-01
110         0.0000000000e+00
111         2.3562392876e-01
112        -2.9580768743e-01
113         0.0000000000e+00
114         0.0000000000e+00
115        -1.2905079289e-01
 Sym= B2
 Ene=         1.5913643218e+01
 Spin= Alpha
 Occup=         0.0000000000e+00
  1         0.0000000000e+00
  2         0.0000000000e+00
  3         0.0000000000e+00
  4         0.0000000000e+00
  5         0.0000000000e+00
  6         0.0000000000e+00
  7         6.9095996202e-01
  8         0.0000000000e+00
  9         0.0000000000e+00
 10        -8.7178084805e-01
 11         0.0000000000e+00
 12         0.0000000000e+00
 13        -6.2888562981e+00
 14         0.0000000000e+00
 15         0.0000000000e+00
 16        -1.1447062590e+00
 17         0.0000000000e+00
 18         0.0000000000e+00
 19         0.0000000000e+00
 20        -1.3511172230e+00
 21         0.0000000000e+00
 22         0.0000000000e+00
 23         0.0000000000e+00
 24         0.0000000000e+00
 25         3.1625127671e+00
 26         0.0000000000e+00
 27         0.0000000000e+00
 28         0.0000000000e+00
 29         0.0000000000e+00
 30         2.0311482784e+00
 31         0.0000000000e+00
 32         0.0000000000e+00
 33         0.0000000000e+00
 34         0.0000000000e+00
 35        -2.3521139889e-01
 36         0.0000000000e+00
 37         0.0000000000e+00
 38         0.0000000000e+00
 39         2.7304808637e-01
 40         0.0000000000e+00
 41         0.0000000000e+00
 42        -7.4244065215e-01
 43         0.0000000000e+00
 44         0.0000000000e+00
 45         0.0000000000e+00
 46         6.3033229455e-01
 47         0.0000000000e+00
 48         0.0000000000e+00
 49        -9.7713972028e-02
 50         0.0000000000e+00
 51         0.0000000000e+00
 52         0.0000000000e+00
 53        -5.2259461111e-01
 54         0.0000000000e+00
 55         0.0000000000e+00
 56        -8.7876464947e-01
 57         3.9327837001e+00
 58         3.1240989068e+00
 59         9.2941966252e-03
 60         0.0000000000e+00
 61        -3.6306553763e-02
 62         5.7898306023e-02
 63         0.0000000000e+00
 64        -2.6330449418e+00
 65         1.6801688185e+00
 66         0.0000000000e+00
 67        -1.0654412194e+00
 68         7.7171009163e-01
 69        -3.6455642334e-02
 70         0.0000000000e+00
 71        -6.5552758090e-01
 72        -5.1528994096e-01
 73         0.0000000000e+00
 74        -6.9960247089e-02
 75         0.0000000000e+00
 76        -7.3057017273e-01
 77        -5.5473830124e-01
 78         0.0000000000e+00
 79        -1.6235044592e-01
 80         0.0000000000e+00
 81        -5.6836022729e-02
 82        -2.9077910534e-01
 83         0.0000000000e+00
 84         0.0000000000e+00
 85         1.8303009127e-01
 86         8.7876464947e-01
 87        -3.9327837001e+00
 88        -3.1240989068e+00
 89        -9.2941966252e-03
 90         0.0000000000e+00
 91        -3.6306553763e-02
 92        -5.7898306023e-02
 93         0.0000000000e+00
 94        -2.6330449418e+00
 95        -1.6801688185e+00
 96         0.0000000000e+00
 97        -1.0654412194e+00
 98        -7.7171009163e-01
 99         3.6455642334e-02
100         0.0000000000e+00
101        -6.5552758090e-01
102         5.1528994096e-01
103         0.0000000000e+00
104         6.9960247089e-02
105         0.0000000000e+00
106        -7.3057017273e-01
107         5.5473830124e-01
108         0.0000000000e+00
109         1.6235044592e-01
110         0.0000000000e+00
111        -5.6836022729e-02
112         2.9077910534e-01
113         0.0000000000e+00
114         0.0000000000e+00
115         1.8303009127e-01
 Sym= A1
 Ene=         4.3257977185e+01
 Spin= Alpha
 Occup=         0.0000000000e+00
  1         1.1709864025e+01
  2         1.2674935114e+01
  3         3.7105423195e+00
  4        -4.3120130022e+00
  5        -2.2387148947e+00
  6         0.0000000000e+00
  7         0.0000000000e+00
  8         8.9093370572e-02
  9         0.0000000000e+00
 10         0.0000000000e+00
 11        -5.4669190642e-01
 12         0.0000000000e+00
 13         0.0000000000e+00
 14         2.1637996232e+00
 15         0.0000000000e+00
 16         0.0000000000e+00
 17         5.1752507405e-01
 18         1.6700835325e-02
 19         0.0000000000e+00
 20         0.0000000000e+00
 21        -1.5072979622e-01
 22         0.0000000000e+00
 23        -5.0708786665e-02
 24         0.0000000000e+00
 25         0.0000000000e+00
 26         2.9301165357e-01
 27         0.0000000000e+00
 28         2.9485404549e-02
 29         0.0000000000e+00
 30         0.0000000000e+00
 31         1.0018469512e+00
 32         0.0000000000e+00
 33         5.8582505307e-02
 34         0.0000000000e+00
 35         0.0000000000e+00
 36         1.0355929717e-01
 37         0.0000000000e+00
 38         0.0000000000e+00
 39         0.0000000000e+00
 40        -3.4890479948e-01
 41         0.0000000000e+00
 42         0.0000000000e+00
 43        -6.7330915521e-01
 44         0.0000000000e+00
 45         0.0000000000e+00
 46         0.0000000000e+00
 47         9.2775221824e-02
 48         0.0000000000e+00
 49         0.0000000000e+00
 50         1.2023365924e-01
 51         0.0000000000e+00
 52         0.0000000000e+00
 53         0.0000000000e+00
 54        -6.2897492673e-02
 55         0.0000000000e+00
 56        -1.2057017086e-01
 57         1.4168515169e+00
 58         1.5689934055e+00
 59        -2.4624819265e-02
 60         0.0000000000e+00
 61        -9.4473943605e-02
 62         7.3521617204e-02
 63         0.0000000000e+00
 64        -7.0597849748e-01
 65         5.1962248791e-01
 66         0.0000000000e+00
 67        -4.6247515371e-01
 68         3.5372880716e-01
 69        -1.5932188960e-02
 70         0.0000000000e+00
 71        -8.3794635854e-02
 72        -5.4102655213e-02
 73         0.0000000000e+00
 74         7.3201046970e-03
 75         0.0000000000e+00
 76        -8.0731372954e-02
 77        -7.4690048506e-02
 78         0.0000000000e+00
 79         3.2037813822e-02
 80         0.0000000000e+00
 81         7.2196562819e-02
 82         1.2185332523e-01
 83         0.0000000000e+00
 84         0.0000000000e+00
 85        -5.9880796597e-02
 86        -1.2057017086e-01
 87         1.4168515169e+00
 88         1.5689934055e+00
 89        -2.4624819265e-02
 90         0.0000000000e+00
 91         9.4473943605e-02
 92         7.3521617204e-02
 93         0.0000000000e+00
 94         7.0597849748e-01
 95         5.1962248791e-01
 96         0.0000000000e+00
 97         4.6247515371e-01
 98         3.5372880716e-01
 99        -1.5932188960e-02
100         0.0000000000e+00
101         8.3794635854e-02
102        -5.4102655213e-02
103         0.0000000000e+00
104         7.3201046970e-03
105         0.0000000000e+00
106         8.0731372954e-02
107        -7.4690048506e-02
108         0.0000000000e+00
109         3.2037813822e-02
110         0.0000000000e+00
111        -7.2196562819e-02
112         1.2185332523e-01
113         0.0000000000e+00
114         0.0000000000e+00
115         5.9880796597e-02
 Sym= A1
 Ene=        -2.1100397649e+01
 Spin= Beta
 Occup=         1.0000000000e+00
  1         9.9221506596e-01
  2         5.3323070239e-04
  3         1.8241209108e-02
  4        -3.5747707023e-03
  5         1.0195589864e-03
  6         0.0000000000e+00
  7         0.0000000000e+00
  8        -1.6466377079e-03
  9         0.0000000000e+00
 10         0.0000000000e+00
 11         3.7455401019e-04
 12         0.0000000000e+00
 13         0.0000000000e+00
 14         1.1387023431e-04
 15         0.0000000000e+00
 16         0.0000000000e+00
 17        -7.5071893697e-05
 18        -2.7712405752e-05
 19         0.0000000000e+00
 20         0.0000000000e+00
 21         5.7700418234e-06
 22         0.0000000000e+00
 23         1.7171504303e-04
 24         0.0000000000e+00
 25         0.0000000000e+00
 26        -1.1980096772e-04
 27         0.0000000000e+00
 28         1.8593258576e-04
 29         0.0000000000e+00
 30         0.0000000000e+00
 31         2.6783577398e-04
 32         0.0000000000e+00
 33         4.4248892308e-05
 34         0.0000000000e+00
 35         0.0000000000e+00
 36         7.2439634928e-05
 37         0.0000000000e+00
 38         0.0000000000e+00
 39         0.0000000000e+00
 40        -9.6327131608e-05
 41         0.0000000000e+00
 42         0.0000000000e+00
 43        -8.6354649134e-05
 44         0.0000000000e+00
 45         0.0000000000e+00
 46         0.0000000000e+00
 47        -7.7694894930e-06
 48         0.0000000000e+00
 49         0.0000000000e+00
 50        -1.9144845927e-05
 51         0.0000000000e+00
 52         0.0000000000e+00
 53         0.0000000000e+00
 54         7.9783207071e-06
 55         0.0000000000e+00
 56         2.1625859859e-05
 57         4.3872043776e-04
 58         2.2170924872e-04
 59        -1.4314234218e-04
 60         0.0000000000e+00
 61         1.7603055537e-05
 62        -3.0278019905e-05
 63         0.0000000000e+00
 64        -2.3589160216e-04
 65         2.6086891094e-04
 66         0.0000000000e+00
 67        -2.0868352557e-05
 68         1.2659213987e-04
 69        -1.0078155099e-05
 70         0.0000000000e+00
 71         8.7640552059e-06
 72         8.1698810705e-06
 73         0.0000000000e+00
 74         6.8557233340e-05
 75         0.0000000000e+00
 76        -1.0543303296e-04
 77        -2.4960068827e-05
 78         0.0000000000e+00
 79        -1.0764306691e-05
 80         0.0000000000e+00
 81         6.3701604347e-06
 82         6.8742803646e-06
 83         0.0000000000e+00
 84         0.0000000000e+00
 85        -6.6798580835e-06
 86         2.1625859859e-05
 87         4.3872043776e-04
 88         2.2170924872e-04
 89        -1.4314234218e-04
 90         0.0000000000e+00
 91        -1.7603055537e-05
 92        -3.0278019905e-05
 93         0.0000000000e+00
 94         2.3589160216e-04
 95         2.6086891094e-04
 96         0.0000000000e+00
 97         2.0868352557e-05
 98         1.2659213987e-04
 99        -1.0078155099e-05
100         0.0000000000e+00
101        -8.7640552059e-06
102         8.1698810705e-06
103         0.0000000000e+00
104         6.8557233340e-05
105         0.0000000000e+00
106         1.0543303296e-04
107        -2.4960068827e-05
108         0.0000000000e+00
109        -1.0764306691e-05
110         0.0000000000e+00
111        -6.3701604347e-06
112         6.8742803646e-06
113         0.0000000000e+00
114         0.0000000000e+00
115         6.6798580835e-06
 Sym= A1
 Ene=        -1.7926814573e+00
 Spin= Beta
 Occup=         1.0000000000e+00
  1         2.2371091804e-03
  2        -3.3013734917e-01
  3        -2.6255247856e-01
  4        -5.4798151967e-01
  5        -1.7747176315e-01
  6         0.0000000000e+00
  7         0.0000000000e+00
  8         2.0929589660e-02
  9         0.0000000000e+00
 10         0.0000000000e+00
 11         4.2855247916e-02
 12         0.0000000000e+00
 13         0.0000000000e+00
 14         5.5671167970e-02
 15         0.0000000000e+00
 16         0.0000000000e+00
 17         7.1082659460e-03
 18        -6.2288256958e-04
 19         0.0000000000e+00
 20         0.0000000000e+00
 21         1.4045406501e-03
 22         0.0000000000e+00
 23        -9.3695685082e-04
 24         0.0000000000e+00
 25         0.0000000000e+00
 26         6.4221530449e-03
 27         0.0000000000e+00
 28        -4.3312040198e-03
 29         0.0000000000e+00
 30         0.0000000000e+00
 31         7.4571256757e-03
 32         0.0000000000e+00
 33        -6.5499281055e-04
 34         0.0000000000e+00
 35         0.0000000000e+00
 36        -1.0247413295e-03
 37         0.0000000000e+00
 38         0.0000000000e+00
 39         0.0000000000e+00
 40        -6.8904388397e-04
 41         0.0000000000e+00
 42         0.0000000000e+00
 43        -2.2872880075e-03
 44         0.0000000000e+00
 45         0.0000000000e+00
 46         0.0000000000e+00
 47         1.9528037833e-04
 48         0.0000000000e+00
 49         0.0000000000e+00
 50         2.8725703305e-04
 51         0.0000000000e+00
 52         0.0000000000e+00
 53         0.0000000000e+00
 54        -8.5446280645e-05
 55         0.0000000000e+00
 56        -2.9047233244e-02
 57        -7.3647958677e-02
 58        -4.2748125958e-02
 59         3.0729853046e-03
 60         0.0000000000e+00
 61         4.9895813160e-03
 62        -3.1309580186e-03
 63         0.0000000000e+00
 64         1.1150799434e-02
 65        -7.5150444111e-03
 66         0.0000000000e+00
 67         7.1286433217e-03
 68        -3.8595638443e-03
 69         1.4429650427e-04
 70         0.0000000000e+00
 71         1.9097204236e-03
 72         1.4725918897e-03
 73         0.0000000000e+00
 74        -1.0985622114e-04
 75         0.0000000000e+00
 76         1.4538499854e-03
 77         1.0142906392e-03
 78         0.0000000000e+00
 79         3.0357580808e-04
 80         0.0000000000e+00
 81         1.6995903545e-04
 82         4.8642910439e-04
 83         0.0000000000e+00
 84         0.0000000000e+00
 85        -3.5758129790e-04
 86        -2.9047233244e-02
 87        -7.3647958677e-02
 88        -4.2748125958e-02
 89         3.0729853046e-03
 90         0.0000000000e+00
 91        -4.9895813160e-03
 92        -3.1309580186e-03
 93         0.0000000000e+00
 94        -1.1150799434e-02
 95        -7.5150444111e-03
 96         0.0000000000e+00
 97        -7.1286433217e-03
 98        -3.8595638443e-03
 99         1.4429650427e-04
100         0.0000000000e+00
101        -1.9097204236e-03
102         1.4725918897e-03
103         0.0000000000e+00
104        -1.0985622114e-04
105         0.0000000000e+00
106        -1.4538499854e-03
107         1.0142906392e-03
108         0.0000000000e+00
109         3.0357580808e-04
110         0.0000000000e+00
111        -1.6995903545e-04
112         4.8642910439e-04
113         0.0000000000e+00
114         0.0000000000e+00
115         3.5758129790e-04
 Sym= B2
 Ene=        -1.1676119615e+00
 Spin= Beta
 Occup=         1.0000000000e+00
  1         0.0000000000e+00
  2         0.0000000000e+00
  3         0.0000000000e+00
  4         0.0000000000e+00
  5         0.0000000000e+00
  6         0.0000000000e+00
  7         1.5508738291e-01
  8         0.0000000000e+00
  9         0.0000000000e+00
 10         2.8785857866e-01
 11         0.0000000000e+00
 12         0.0000000000e+00
 13         3.4242417447e-01
 14         0.0000000000e+00
 15         0.0000000000e+00
 16         9.0470850011e-02
 17         0.0000000000e+00
 18         0.0000000000e+00
 19         0.0000000000e+00
 20        -4.5601777254e-03
 21         0.0000000000e+00
 22         0.0000000000e+00
 23         0.0000000000e+00
 24         0.0000000000e+00
 25        -1.8780125866e-02
 26         0.0000000000e+00
 27         0.0000000000e+00
 28         0.0000000000e+00
 29         0.0000000000e+00
 30        -2.1330179624e-02
 31         0.0000000000e+00
 32         0.0000000000e+00
 33         0.0000000000e+00
 34         0.0000000000e+00
 35         1.3503977846e-04
 36         0.0000000000e+00
 37         0.0000000000e+00
 38         0.0000000000e+00
 39        -5.4060203032e-04
 40         0.0000000000e+00
 41         0.0000000000e+00
 42        -7.4988402115e-04
 43         0.0000000000e+00
 44         0.0000000000e+00
 45         0.0000000000e+00
 46        -1.5902662809e-03
 47         0.0000000000e+00
 48         0.0000000000e+00
 49         5.0406719395e-04
 50         0.0000000000e+00
 51         0.0000000000e+00
 52         0.0000000000e+00
 53         3.8775583269e-04
 54         0.0000000000e+00
 55         0.0000000000e+00
 56         4.8328253392e-02
 57         1.3026540846e-01
 58         1.5530003168e-01
 59         4.5818249223e-03
 60         0.0000000000e+00
 61        -4.9457853665e-03
 62         5.0101781297e-03
 63         0.0000000000e+00
 64        -1.2021639601e-02
 65         1.3707921770e-02
 66         0.0000000000e+00
 67        -2.0526402528e-02
 68         1.8614737855e-02
 69         6.2910849866e-04
 70         0.0000000000e+00
 71        -2.5392175356e-03
 72        -1.0358960387e-03
 73         0.0000000000e+00
 74         7.8810004212e-04
 75         0.0000000000e+00
 76        -4.5675386851e-03
 77        -2.5479484876e-03
 78         0.0000000000e+00
 79        -3.6820335428e-04
 80         0.0000000000e+00
 81        -7.2145878738e-04
 82        -7.5866763271e-04
 83         0.0000000000e+00
 84         0.0000000000e+00
 85         1.6174607970e-04
 86        -4.8328253392e-02
 87        -1.3026540846e-01
 88        -1.5530003168e-01
 89        -4.5818249223e-03
 90         0.0000000000e+00
 91        -4.9457853665e-03
 92        -5.0101781297e-03
 93         0.0000000000e+00
 94        -1.2021639601e-02
 95        -1.3707921770e-02
 96         0.0000000000e+00
 97        -2.0526402528e-02
 98        -1.8614737855e-02
 99        -6.2910849866e-04
100         0.0000000000e+00
101        -2.5392175356e-03
102         1.0358960387e-03
103         0.0000000000e+00
104        -7.8810004212e-04
105         0.0000000000e+00
106        -4.5675386851e-03
107         2.5479484876e-03
108         0.0000000000e+00
109         3.6820335428e-04
110         0.0000000000e+00
111        -7.2145878738e-04
112         7.5866763271e-04
113         0.0000000000e+00
114         0.0000000000e+00
115         1.6174607970e-04
 Sym= A1
 Ene=        -1.0457608319e+00
 Spin= Beta
 Occup=         1.0000000000e+00
  1         2.3591520311e-03
  2         1.0088678433e-01
  3         8.6167793428e-02
  4         1.9505590538e-01
  5         2.0525759477e-01
  6         0.0000000000e+00
  7         0.0000000000e+00
  8         1.7375160946e-01
  9         0.0000000000e+00
 10         0.0000000000e+00
 11         3.1886022751e-01
 12         0.0000000000e+00
 13         0.0000000000e+00
 14         3.9034665855e-01
 15         0.0000000000e+00
 16         0.0000000000e+00
 17         1.3476525570e-01
 18        -1.9736895973e-03
 19         0.0000000000e+00
 20         0.0000000000e+00
 21         1.0393323763e-03
 22         0.0000000000e+00
 23        -9.5256104484e-03
 24         0.0000000000e+00
 25         0.0000000000e+00
 26         5.1228769841e-03
 27         0.0000000000e+00
 28        -1.7116369498e-02
 29         0.0000000000e+00
 30         0.0000000000e+00
 31         5.3396558811e-04
 32         0.0000000000e+00
 33        -9.5487677358e-04
 34         0.0000000000e+00
 35         0.0000000000e+00
 36        -5.3970647198e-04
 37         0.0000000000e+00
 38         0.0000000000e+00
 39         0.0000000000e+00
 40        -1.2417660701e-03
 41         0.0000000000e+00
 42         0.0000000000e+00
 43        -1.1187051465e-03
 44         0.0000000000e+00
 45         0.0000000000e+00
 46         0.0000000000e+00
 47         3.3035307540e-04
 48         0.0000000000e+00
 49         0.0000000000e+00
 50         3.9481722021e-04
 51         0.0000000000e+00
 52         0.0000000000e+00
 53         0.0000000000e+00
 54         1.8386164904e-05
 55         0.0000000000e+00
 56        -2.8231517459e-02
 57        -7.6924388036e-02
 58        -1.2355522024e-01
 59        -6.0208724791e-03
 60         0.0000000000e+00
 61         4.4719766407e-03
 62         3.0411316956e-05
 63         0.0000000000e+00
 64         1.1172355705e-02
 65         1.6578469902e-03
 66         0.0000000000e+00
 67         2.9963752933e-02
 68         8.0643937838e-04
 69         1.0872066716e-03
 70         0.0000000000e+00
 71         6.2066225339e-04
 72         1.4550652858e-03
 73         0.0000000000e+00
 74         3.2276538601e-03
 75         0.0000000000e+00
 76         1.0321972581e-03
 77         3.5159393310e-03
 78         0.0000000000e+00
 79         5.3684323803e-04
 80         0.0000000000e+00
 81        -6.8917151442e-04
 82         4.4432870271e-04
 83         0.0000000000e+00
 84         0.0000000000e+00
 85        -6.4317192351e-04
 86        -2.8231517459e-02
 87        -7.6924388036e-02
 88        -1.2355522024e-01
 89        -6.0208724791e-03
 90         0.0000000000e+00
 91        -4.4719766407e-03
 92         3.0411316956e-05
 93         0.0000000000e+00
 94        -1.1172355705e-02
 95         1.6578469902e-03
 96         0.0000000000e+00
 97        -2.9963752933e-02
 98         8.0643937838e-04
 99         1.0872066716e-03
100         0.0000000000e+00
101        -6.2066225339e-04
102         1.4550652858e-03
103         0.0000000000e+00
104         3.2276538601e-03
105         0.0000000000e+00
106        -1.0321972581e-03
107         3.5159393310e-03
108         0.0000000000e+00
109         5.3684323803e-04
110         0.0000000000e+00
111         6.8917151442e-04
112         4.4432870271e-04
113         0.0000000000e+00
114         0.0000000000e+00
115         6.4317192351e-04
 Sym= B1
 Ene=        -6.8411799229e-01
 Spin= Beta
 Occup=         0.0000000000e+00
  1         0.0000000000e+00
  2         0.0000000000e+00
  3         0.0000000000e+00
  4         0.0000000000e+00
  5         0.0000000000e+00
  6         1.9884518999e-01
  7         0.0000000000e+00
  8         0.0000000000e+00
  9         3.7006044999e-01
 10         0.0000000000e+00
 11         0.0000000000e+00
 12         4.6314626070e-01
 13         0.0000000000e+00
 14         0.0000000000e+00
 15         1.6346274413e-01
 16         0.0000000000e+00
 17         0.0000000000e+00
 18         0.0000000000e+00
 19        -2.1283588113e-03
 20         0.0000000000e+00
 21         0.0000000000e+00
 22         0.0000000000e+00
 23         0.0000000000e+00
 24        -9.3811217300e-03
 25         0.0000000000e+00
 26         0.0000000000e+00
 27         0.0000000000e+00
 28         0.0000000000e+00
 29        -1.8703599168e-02
 30         0.0000000000e+00
 31         0.0000000000e+00
 32         0.0000000000e+00
 33         0.0000000000e+00
 34        -1.8239374532e-03
 35         0.0000000000e+00
 36         0.0000000000e+00
 37         0.0000000000e+00
 38         1.5232044850e-03
 39         0.0000000000e+00
 40         0.0000000000e+00
 41        -3.3391175424e-03
 42         0.0000000000e+00
 43         0.0000000000e+00
 44         0.0000000000e+00
 45         1.7899612334e-03
 46         0.0000000000e+00
 47         0.0000000000e+00
 48         2.8795925420e-04
 49         0.0000000000e+00
 50         0.0000000000e+00
 51         0.0000000000e+00
 52         3.9083198618e-04
 53         0.0000000000e+00
 54         0.0000000000e+00
 55         0.0000000000e+00
 56         0.0000000000e+00
 57         0.0000000000e+00
 58         0.0000000000e+00
 59         0.0000000000e+00
 60         3.0612284160e-03
 61         0.0000000000e+00
 62         0.0000000000e+00
 63         1.0638928406e-02
 64         0.0000000000e+00
 65         0.0000000000e+00
 66         1.5353619165e-02
 67         0.0000000000e+00
 68         0.0000000000e+00
 69         0.0000000000e+00
 70         1.0395821434e-03
 71         0.0000000000e+00
 72         0.0000000000e+00
 73        -1.4658241242e-03
 74         0.0000000000e+00
 75         2.6485631433e-03
 76         0.0000000000e+00
 77         0.0000000000e+00
 78        -3.8566642667e-03
 79         0.0000000000e+00
 80         1.5961483320e-04
 81         0.0000000000e+00
 82         0.0000000000e+00
 83        -9.2122962704e-04
 84        -7.1553762947e-04
 85         0.0000000000e+00
 86         0.0000000000e+00
 87         0.0000000000e+00
 88         0.0000000000e+00
 89         0.0000000000e+00
 90         3.0612284160e-03
 91         0.0000000000e+00
 92         0.0000000000e+00
 93         1.0638928406e-02
 94         0.0000000000e+00
 95         0.0000000000e+00
 96         1.5353619165e-02
 97         0.0000000000e+00
 98         0.0000000000e+00
 99         0.0000000000e+00
100         1.0395821434e-03
101         0.0000000000e+00
102         0.0000000000e+00
103         1.4658241242e-03
104         0.0000000000e+00
105         2.6485631433e-03
106         0.0000000000e+00
107         0.0000000000e+00
108         3.8566642667e-03
109         0.0000000000e+00
110         1.5961483320e-04
111         0.0000000000e+00
112         0.0000000000e+00
113         9.2122962704e-04
114        -7.1553762947e-04
115         0.0000000000e+00
 Sym= A1
 Ene=        -1.6758018681e-01
 Spin= Beta
 Occup=         0.0000000000e+00
  1         9.9580594334e-03
  2         1.2280201432e-01
  3         1.1930234604e-01
  4         1.1636933166e-01
  5         1.0828096619e+00
  6         0.0000000000e+00
  7         0.0000000000e+00
  8        -5.2652961890e-02
  9         0.0000000000e+00
 10         0.0000000000e+00
 11        -8.5153699047e-02
 12         0.0000000000e+00
 13         0.0000000000e+00
 14        -1.7845317130e-01
 15         0.0000000000e+00
 16         0.0000000000e+00
 17        -2.5243254861e-01
 18         6.0899464832e-04
 19         0.0000000000e+00
 20         0.0000000000e+00
 21         7.9617482337e-04
 22         0.0000000000e+00
 23         2.2621741294e-03
 24         0.0000000000e+00
 25         0.0000000000e+00
 26         7.1973280224e-03
 27         0.0000000000e+00
 28        -2.2419900546e-03
 29         0.0000000000e+00
 30         0.0000000000e+00
 31        -2.6904716881e-02
 32         0.0000000000e+00
 33        -9.7527547652e-04
 34         0.0000000000e+00
 35         0.0000000000e+00
 36        -1.8823540091e-03
 37         0.0000000000e+00
 38         0.0000000000e+00
 39         0.0000000000e+00
 40         6.5495149228e-03
 41         0.0000000000e+00
 42         0.0000000000e+00
 43         8.2898874441e-03
 44         0.0000000000e+00
 45         0.0000000000e+00
 46         0.0000000000e+00
 47        -5.1840501251e-04
 48         0.0000000000e+00
 49         0.0000000000e+00
 50        -4.8459886693e-04
 51         0.0000000000e+00
 52         0.0000000000e+00
 53         0.0000000000e+00
 54         5.1395536440e-04
 55         0.0000000000e+00
 56        -1.7362962593e-02
 57        -8.6740983385e-02
 58        -2.3917102048e-01
 59        -7.5451412657e-01
 60         0.0000000000e+00
 61        -1.5281019453e-03
 62         1.1558385235e-03
 63         0.0000000000e+00
 64        -1.3305665622e-02
 65         1.3548211763e-03
 66         0.0000000000e+00
 67         4.7436862167e-02
 68        -3.7938713709e-02
 69        -1.4662063528e-04
 70         0.0000000000e+00
 71        -8.5171183832e-04
 72        -8.3136572971e-04
 73         0.0000000000e+00
 74        -4.3312382857e-03
 75         0.0000000000e+00
 76         2.4149488794e-03
 77        -1.6834059257e-03
 78         0.0000000000e+00
 79        -7.7506712943e-04
 80         0.0000000000e+00
 81        -4.8797371171e-04
 82        -1.8985435099e-03
 83         0.0000000000e+00
 84         0.0000000000e+00
 85         1.2790207131e-03
 86        -1.7362962593e-02
 87        -8.6740983385e-02
 88        -2.3917102048e-01
 89        -7.5451412657e-01
 90         0.0000000000e+00
 91         1.5281019453e-03
 92         1.1558385235e-03
 93         0.0000000000e+00
 94         1.3305665622e-02
 95         1.3548211763e-03
 96         0.0000000000e+00
 97        -4.7436862167e-02
 98        -3.7938713709e-02
 99        -1.4662063528e-04
100         0.0000000000e+00
101         8.5171183832e-04
102        -8.3136572971e-04
103         0.0000000000e+00
104        -4.3312382857e-03
105         0.0000000000e+00
106        -2.4149488794e-03
107        -1.6834059257e-03
108         0.0000000000e+00
109        -7.7506712943e-04
110         0.0000000000e+00
111         4.8797371171e-04
112        -1.8985435099e-03
113         0.0000000000e+00
114         0.0000000000e+00
115        -1.2790207131e-03
 Sym= B2
 Ene=        -9.3971292149e-02
 Spin= Beta
 Occup=         0.0000000000e+00
  1         0.0000000000e+00
  2         0.0000000000e+00
  3         0.0000000000e+00
  4         0.0000000000e+00
  5         0.0000000000e+00
  6         0.0000000000e+00
  7         8.2491417547e-02
  8         0.0000000000e+00
  9         0.0000000000e+00
 10         1.4773374856e-01
 11         0.0000000000e+00
 12         0.0000000000e+00
 13         2.8168112439e-01
 14         0.0000000000e+00
 15         0.0000000000e+00
 16         7.8838227258e-01
 17         0.0000000000e+00
 18         0.0000000000e+00
 19         0.0000000000e+00
 20         1.7307284479e-04
 21         0.0000000000e+00
 22         0.0000000000e+00
 23         0.0000000000e+00
 24         0.0000000000e+00
 25         7.9011034330e-03
 26         0.0000000000e+00
 27         0.0000000000e+00
 28         0.0000000000e+00
 29         0.0000000000e+00
 30        -7.2368133068e-02
 31         0.0000000000e+00
 32         0.0000000000e+00
 33         0.0000000000e+00
 34         0.0000000000e+00
 35        -1.1899617321e-03
 36         0.0000000000e+00
 37         0.0000000000e+00
 38         0.0000000000e+00
 39         6.1750632449e-04
 40         0.0000000000e+00
 41         0.0000000000e+00
 42         7.2449722472e-03
 43         0.0000000000e+00
 44         0.0000000000e+00
 45         0.0000000000e+00
 46        -2.4979768486e-03
 47         0.0000000000e+00
 48         0.0000000000e+00
 49        -6.2137611767e-04
 50         0.0000000000e+00
 51         0.0000000000e+00
 52         0.0000000000e+00
 53         5.8493270109e-04
 54         0.0000000000e+00
 55         0.0000000000e+00
 56        -1.5375140988e-02
 57        -7.7969823088e-02
 58        -4.0856485703e-01
 59        -1.4836576354e+00
 60         0.0000000000e+00
 61        -2.1772486543e-03
 62         1.9452593636e-03
 63         0.0000000000e+00
 64        -3.0513580007e-03
 65         1.0787535685e-02
 66         0.0000000000e+00
 67         1.2435930525e-01
 68        -7.9789482016e-02
 69         5.9473466829e-04
 70         0.0000000000e+00
 71        -1.6962816124e-03
 72        -1.0176395501e-03
 73         0.0000000000e+00
 74         7.3144722456e-03
 75         0.0000000000e+00
 76         1.2528635241e-02
 77         1.3894782673e-02
 78         0.0000000000e+00
 79         9.1327535920e-04
 80         0.0000000000e+00
 81        -1.5744714406e-03
 82         1.8236294802e-05
 83         0.0000000000e+00
 84         0.0000000000e+00
 85        -5.2263334371e-04
 86         1.5375140988e-02
 87         7.7969823088e-02
 88         4.0856485703e-01
 89         1.4836576354e+00
 90         0.0000000000e+00
 91        -2.1772486543e-03
 92        -1.9452593636e-03
 93         0.0000000000e+00
 94        -3.0513580007e-03
 95        -1.0787535685e-02
 96         0.0000000000e+00
 97         1.2435930525e-01
 98         7.9789482016e-02
 99        -5.9473466829e-04
100         0.0000000000e+00
101        -1.6962816124e-03
102         1.0176395501e-03
103         0.0000000000e+00
104        -7.3144722456e-03
105         0.0000000000e+00
106         1.2528635241e-02
107        -1.3894782673e-02
108         0.0000000000e+00
109        -9.1327535920e-04
110         0.0000000000e+00
111        -1.5744714406e-03
112        -1.8236294802e-05
113         0.0000000000e+00
114         0.0000000000e+00
115        -5.2263334371e-04
 Sym= B2
 Ene=         1.2078805298e-01
 Spin= Beta
 Occup=         0.0000000000e+00
  1         0.0000000000e+00
  2         0.0000000000e+00
  3         0.0000000000e+00
  4         0.0000000000e+00
  5         0.0000000000e+00
  6         0.0000000000e+00
  7         5.2386402581e-02
  8         0.0000000000e+00
  9         0.0000000000e+00
 10         6.3625513188e-02
 11         0.0000000000e+00
 12         0.0000000000e+00
 13         6.6587048932e-01
 14         0.0000000000e+00
 15         0.0000000000e+00
 16         1.2672052943e+00
 17         0.0000000000e+00
 18         0.0000000000e+00
 19         0.0000000000e+00
 20         1.2357132482e-02
 21         0.0000000000e+00
 22         0.0000000000e+00
 23         0.0000000000e+00
 24         0.0000000000e+00
 25        -1.8678158899e-02
 26         0.0000000000e+00
 27         0.0000000000e+00
 28         0.0000000000e+00
 29         0.0000000000e+00
 30        -3.1162243161e-01
 31         0.0000000000e+00
 32         0.0000000000e+00
 33         0.0000000000e+00
 34         0.0000000000e+00
 35        -2.8581457913e-03
 36         0.0000000000e+00
 37         0.0000000000e+00
 38         0.0000000000e+00
 39         8.6462239913e-04
 40         0.0000000000e+00
 41         0.0000000000e+00
 42         4.0292019143e-02
 43         0.0000000000e+00
 44         0.0000000000e+00
 45         0.0000000000e+00
 46        -3.4473964348e-02
 47         0.0000000000e+00
 48         0.0000000000e+00
 49         1.4270760915e-03
 50         0.0000000000e+00
 51         0.0000000000e+00
 52         0.0000000000e+00
 53         6.7473376868e-03
 54         0.0000000000e+00
 55         0.0000000000e+00
 56        -4.1646035777e-02
 57        -1.8331607056e-01
 58        -2.0637645568e+00
 59         9.9570656646e-01
 60         0.0000000000e+00
 61        -2.0268350795e-02
 62         2.1010658207e-02
 63         0.0000000000e+00
 64         1.8741570877e-01
 65        -1.2642862974e-01
 66         0.0000000000e+00
 67         1.8479473500e-01
 68        -9.1427142113e-03
 69        -1.9808932635e-04
 70         0.0000000000e+00
 71         6.4856586511e-03
 72         6.8297837678e-03
 73         0.0000000000e+00
 74         1.8158621864e-02
 75         0.0000000000e+00
 76         6.9847462609e-02
 77         4.5775147263e-02
 78         0.0000000000e+00
 79         5.2143259578e-03
 80         0.0000000000e+00
 81         8.2286946223e-04
 82         7.6157921833e-03
 83         0.0000000000e+00
 84         0.0000000000e+00
 85        -4.4943066517e-03
 86         4.1646035777e-02
 87         1.8331607056e-01
 88         2.0637645568e+00
 89        -9.9570656646e-01
 90         0.0000000000e+00
 91        -2.0268350795e-02
 92        -2.1010658207e-02
 93         0.0000000000e+00
 94         1.8741570877e-01
 95         1.2642862974e-01
 96         0.0000000000e+00
 97         1.8479473500e-01
 98         9.1427142113e-03
 99         1.9808932635e-04
100         0.0000000000e+00
101         6.4856586511e-03
102        -6.8297837678e-03
103         0.0000000000e+00
104        -1.8158621864e-02
105         0.0000000000e+00
106         6.9847462609e-02
107        -4.5775147263e-02
108         0.0000000000e+00
109        -5.2143259578e-03
110         0.0000000000e+00
111         8.2286946223e-04
112        -7.6157921833e-03
113         0.0000000000e+00
114         0.0000000000e+00
115        -4.4943066517e-03
 Sym= A1
 Ene=         1.3396697177e-01
 Spin= Beta
 Occup=         0.0000000000e+00
  1         1.4658165568e-02
  2        -5.6192987632e-02
  3         8.5123189589e-02
  4        -7.1636219856e-01
  5        -2.0019764784e+00
  6         0.0000000000e+00
  7         0.0000000000e+00
  8         2.6968531195e-02
  9         0.0000000000e+00
 10         0.0000000000e+00
 11         5.1108945256e-02
 12         0.0000000000e+00
 13         0.0000000000e+00
 14         4.2911367812e-01
 15         0.0000000000e+00
 16         0.0000000000e+00
 17         9.6341707051e-01
 18        -1.6989649060e-03
 19         0.0000000000e+00
 20         0.0000000000e+00
 21        -1.0052547000e-02
 22         0.0000000000e+00
 23        -8.3237733389e-03
 24         0.0000000000e+00
 25         0.0000000000e+00
 26         1.3743654878e-02
 27         0.0000000000e+00
 28         4.4888151352e-02
 29         0.0000000000e+00
 30         0.0000000000e+00
 31         2.1620812745e-01
 32         0.0000000000e+00
 33         4.6000191121e-04
 34         0.0000000000e+00
 35         0.0000000000e+00
 36        -5.7870112799e-04
 37         0.0000000000e+00
 38         0.0000000000e+00
 39         0.0000000000e+00
 40        -3.4709442815e-02
 41         0.0000000000e+00
 42         0.0000000000e+00
 43        -5.3456776500e-02
 44         0.0000000000e+00
 45         0.0000000000e+00
 46         0.0000000000e+00
 47         2.7730209178e-03
 48         0.0000000000e+00
 49         0.0000000000e+00
 50         3.3565287701e-03
 51         0.0000000000e+00
 52         0.0000000000e+00
 53         0.0000000000e+00
 54        -3.8516090849e-03
 55         0.0000000000e+00
 56         4.5550165217e-02
 57         1.2330372919e-01
 58         2.3204825970e+00
 59        -7.1980710542e-01
 60         0.0000000000e+00
 61         3.0718059705e-02
 62        -7.8413311237e-03
 63         0.0000000000e+00
 64        -1.8116470859e-01
 65         1.1112832709e-01
 66         0.0000000000e+00
 67        -8.2479867889e-02
 68         3.5185023276e-01
 69        -1.8551354122e-03
 70         0.0000000000e+00
 71        -7.2523126608e-03
 72        -4.3983492417e-03
 73         0.0000000000e+00
 74         3.0434874132e-02
 75         0.0000000000e+00
 76        -9.1881444804e-02
 77        -5.2174701384e-02
 78         0.0000000000e+00
 79        -4.5919359113e-03
 80         0.0000000000e+00
 81        -9.8999080485e-03
 82        -1.1645449735e-02
 83         0.0000000000e+00
 84         0.0000000000e+00
 85         5.2055032892e-03
 86         4.5550165217e-02
 87         1.2330372919e-01
 88         2.3204825970e+00
 89        -7.1980710542e-01
 90         0.0000000000e+00
 91        -3.0718059705e-02
 92        -7.8413311237e-03
 93         0.0000000000e+00
 94         1.8116470859e-01
 95         1.1112832709e-01
 96         0.0000000000e+00
 97         8.2479867889e-02
 98         3.5185023276e-01
 99        -1.8551354122e-03
100         0.0000000000e+00
101         7.2523126608e-03
102        -4.3983492417e-03
103         0.0000000000e+00
104         3.0434874132e-02
105         0.0000000000e+00
106         9.1881444804e-02
107        -5.2174701384e-02
108         0.0000000000e+00
109        -4.5919359113e-03
110         0.0000000000e+00
111         9.8999080485e-03
112        -1.1645449735e-02
113         0.0000000000e+00
114         0.0000000000e+00
115        -5.2055032892e-03
 Sym= A1
 Ene=         1.6706111502e-01
 Spin= Beta
 Occup=         0.0000000000e+00
  1         2.0802039442e-02
  2         2.0091026874e-02
  3         1.5173743443e-01
  4        -5.6016134519e-01
  5        -6.0056827220e+00
  6         0.0000000000e+00
  7         0.0000000000e+00
  8        -1.0192809023e-01
  9         0.0000000000e+00
 10         0.0000000000e+00
 11        -2.0482020522e-01
 12         0.0000000000e+00
 13         0.0000000000e+00
 14         3.1497918213e-01
 15         0.0000000000e+00
 16         0.0000000000e+00
 17         2.7345770340e+00
 18        -3.0623385299e-03
 19         0.0000000000e+00
 20         0.0000000000e+00
 21         6.9427188375e-04
 22         0.0000000000e+00
 23         2.1385999729e-02
 24         0.0000000000e+00
 25         0.0000000000e+00
 26         3.3968661586e-03
 27         0.0000000000e+00
 28        -7.2633780242e-02
 29         0.0000000000e+00
 30         0.0000000000e+00
 31         4.9108845583e-01
 32         0.0000000000e+00
 33         5.9578696189e-04
 34         0.0000000000e+00
 35         0.0000000000e+00
 36         1.7481969785e-03
 37         0.0000000000e+00
 38         0.0000000000e+00
 39         0.0000000000e+00
 40        -3.5015589768e-02
 41         0.0000000000e+00
 42         0.0000000000e+00
 43        -7.8616664695e-02
 44         0.0000000000e+00
 45         0.0000000000e+00
 46         0.0000000000e+00
 47         4.3833801498e-03
 48         0.0000000000e+00
 49         0.0000000000e+00
 50         6.0804673218e-03
 51         0.0000000000e+00
 52         0.0000000000e+00
 53         0.0000000000e+00
 54        -4.5327743141e-03
 55         0.0000000000e+00
 56        -2.4997612200e-02
 57         4.6056725516e-02
 58         2.9461226424e+00
 59         6.1303788208e-01
 60         0.0000000000e+00
 61         5.3496949320e-03
 62         2.8080262761e-03
 63         0.0000000000e+00
 64        -1.4002796437e-01
 65         9.0226819770e-02
 66         0.0000000000e+00
 67        -1.2203227129e+00
 68         8.4242073071e-01
 69         1.0185628525e-03
 70         0.0000000000e+00
 71         1.4892680883e-04
 72        -8.7333321606e-04
 73         0.0000000000e+00
 74        -9.0125042471e-05
 75         0.0000000000e+00
 76        -1.4782759791e-01
 77        -1.0600641448e-01
 78         0.0000000000e+00
 79        -3.8169042102e-03
 80         0.0000000000e+00
 81        -5.8515113469e-03
 82        -1.2564395810e-02
 83         0.0000000000e+00
 84         0.0000000000e+00
 85         7.3639025608e-03
 86        -2.4997612200e-02
 87         4.6056725516e-02
 88         2.9461226424e+00
 89         6.1303788208e-01
 90         0.0000000000e+00
 91        -5.3496949320e-03
 92         2.8080262761e-03
 93         0.0000000000e+00
 94         1.4002796437e-01
 95         9.0226819770e-02
 96         0.0000000000e+00
 97         1.2203227129e+00
 98         8.4242073071e-01
 99         1.0185628525e-03
100         0.0000000000e+00
101        -1.4892680883e-04
102        -8.7333321606e-04
103         0.0000000000e+00
104        -9.0125042471e-05
105         0.0000000000e+00
106         1.4782759791e-01
107        -1.0600641448e-01
108         0.0000000000e+00
109        -3.8169042102e-03
110         0.0000000000e+00
111         5.8515113469e-03
112        -1.2564395810e-02
113         0.0000000000e+00
114         0.0000000000e+00
115        -7.3639025608e-03
 Sym= B1
 Ene=         2.3012311615e-01
 Spin= Beta
 Occup=         0.0000000000e+00
  1         0.0000000000e+00
  2         0.0000000000e+00
  3         0.0000000000e+00
  4         0.0000000000e+00
  5         0.0000000000e+00
  6         1.1926000102e-01
  7         0.0000000000e+00
  8         0.0000000000e+00
  9         1.0686253487e-01
 10         0.0000000000e+00
 11         0.0000000000e+00
 12         6.8426600547e-01
 13         0.0000000000e+00
 14         0.0000000000e+00
 15        -1.1648127782e+00
 16         0.0000000000e+00
 17         0.0000000000e+00
 18         0.0000000000e+00
 19         3.1898734625e-03
 20         0.0000000000e+00
 21         0.0000000000e+00
 22         0.0000000000e+00
 23         0.0000000000e+00
 24        -1.5963430006e-02
 25         0.0000000000e+00
 26         0.0000000000e+00
 27         0.0000000000e+00
 28         0.0000000000e+00
 29         7.5282657463e-02
 30         0.0000000000e+00
 31         0.0000000000e+00
 32         0.0000000000e+00
 33         0.0000000000e+00
 34         4.6308165747e-04
 35         0.0000000000e+00
 36         0.0000000000e+00
 37         0.0000000000e+00
 38        -2.3533953639e-03
 39         0.0000000000e+00
 40         0.0000000000e+00
 41        -6.7051976657e-03
 42         0.0000000000e+00
 43         0.0000000000e+00
 44         0.0000000000e+00
 45         1.3950880425e-02
 46         0.0000000000e+00
 47         0.0000000000e+00
 48         2.5271311244e-04
 49         0.0000000000e+00
 50         0.0000000000e+00
 51         0.0000000000e+00
 52        -2.4496919599e-05
 53         0.0000000000e+00
 54         0.0000000000e+00
 55         0.0000000000e+00
 56         0.0000000000e+00
 57         0.0000000000e+00
 58         0.0000000000e+00
 59         0.0000000000e+00
 60        -1.4490483749e-02
 61         0.0000000000e+00
 62         0.0000000000e+00
 63         4.7043369134e-02
 64         0.0000000000e+00
 65         0.0000000000e+00
 66        -1.1045348873e-01
 67         0.0000000000e+00
 68         0.0000000000e+00
 69         0.0000000000e+00
 70        -3.3451473406e-03
 71         0.0000000000e+00
 72         0.0000000000e+00
 73         4.4891525850e-03
 74         0.0000000000e+00
 75         1.7000826245e-02
 76         0.0000000000e+00
 77         0.0000000000e+00
 78        -2.4692619158e-02
 79         0.0000000000e+00
 80        -1.6088961029e-03
 81         0.0000000000e+00
 82         0.0000000000e+00
 83         5.2085130701e-03
 84         2.9306259164e-03
 85         0.0000000000e+00
 86         0.0000000000e+00
 87         0.0000000000e+00
 88         0.0000000000e+00
 89         0.0000000000e+00
 90        -1.4490483749e-02
 91         0.0000000000e+00
 92         0.0000000000e+00
 93         4.7043369134e-02
 94         0.0000000000e+00
 95         0.0000000000e+00
 96        -1.1045348873e-01
 97         0.0000000000e+00
 98         0.0000000000e+00
 99         0.0000000000e+00
100        -3.3451473406e-03
101         0.0000000000e+00
102         0.0000000000e+00
103        -4.4891525850e-03
104         0.0000000000e+00
105         1.7000826245e-02
106         0.0000000000e+00
107         0.0000000000e+00
108         2.4692619158e-02
109         0.0000000000e+00
110        -1.6088961029e-03
111         0.0000000000e+00
112         0.0000000000e+00
113        -5.2085130701e-03
114         2.9306259164e-03
115         0.0000000000e+00
 Sym= A1
 Ene=         2.9516050967e-01
 Spin= Beta
 Occup=         0.0000000000e+00
  1         5.9966971279e-03
  2        -5.1067243662e-02
  3         2.9592516859e-02
  4        -5.0672547443e-01
  5        -1.8766341522e+00
  6         0.0000000000e+00
  7         0.0000000000e+00
  8         2.4767351256e-02
  9         0.0000000000e+00
 10         0.0000000000e+00
 11         1.1478307722e-02
 12         0.0000000000e+00
 13         0.0000000000e+00
 14         5.2057571300e-01
 15         0.0000000000e+00
 16         0.0000000000e+00
 17         2.0094742845e+00
 18         3.8857994042e-03
 19         0.0000000000e+00
 20         0.0000000000e+00
 21        -1.5259134817e-03
 22         0.0000000000e+00
 23         3.5199040536e-02
 24         0.0000000000e+00
 25         0.0000000000e+00
 26         2.1904841244e-02
 27         0.0000000000e+00
 28        -3.9282274074e-01
 29         0.0000000000e+00
 30         0.0000000000e+00
 31        -1.1924216881e-01
 32         0.0000000000e+00
 33        -9.8679147944e-03
 34         0.0000000000e+00
 35         0.0000000000e+00
 36        -3.6821663990e-03
 37         0.0000000000e+00
 38         0.0000000000e+00
 39         0.0000000000e+00
 40         5.8609022966e-02
 41         0.0000000000e+00
 42         0.0000000000e+00
 43        -6.0336869428e-03
 44         0.0000000000e+00
 45         0.0000000000e+00
 46         0.0000000000e+00
 47         2.2612336863e-03
 48         0.0000000000e+00
 49         0.0000000000e+00
 50         9.6278638476e-03
 51         0.0000000000e+00
 52         0.0000000000e+00
 53         0.0000000000e+00
 54         4.0479262895e-03
 55         0.0000000000e+00
 56         1.3663846547e-02
 57        -7.7019444986e-02
 58         1.9112841454e+00
 59        -3.5905997985e-01
 60         0.0000000000e+00
 61         4.7237870420e-03
 62        -2.6708926470e-02
 63         0.0000000000e+00
 64        -5.4693101561e-02
 65         7.4465764561e-02
 66         0.0000000000e+00
 67        -9.2818984734e-01
 68        -6.7971255286e-01
 69         7.4909161871e-03
 70         0.0000000000e+00
 71        -4.7580416469e-03
 72         2.6913341739e-03
 73         0.0000000000e+00
 74        -1.2741992615e-01
 75         0.0000000000e+00
 76         1.6993921594e-02
 77        -1.3014271139e-01
 78         0.0000000000e+00
 79        -7.4456090305e-03
 80         0.0000000000e+00
 81         1.9282658407e-02
 82        -9.3672909941e-03
 83         0.0000000000e+00
 84         0.0000000000e+00
 85         1.7101065578e-02
 86         1.3663846547e-02
 87        -7.7019444986e-02
 88         1.9112841454e+00
 89        -3.5905997985e-01
 90         0.0000000000e+00
 91        -4.7237870420e-03
 92        -2.6708926470e-02
 93         0.0000000000e+00
 94         5.4693101561e-02
 95         7.4465764561e-02
 96         0.0000000000e+00
 97         9.2818984734e-01
 98        -6.7971255286e-01
 99         7.4909161871e-03
100         0.0000000000e+00
101         4.7580416469e-03
102         2.6913341739e-03
103         0.0000000000e+00
104        -1.2741992615e-01
105         0.0000000000e+00
106        -1.6993921594e-02
107        -1.3014271139e-01
108         0.0000000000e+00
109        -7.4456090305e-03
110         0.0000000000e+00
111        -1.9282658407e-02
112        -9.3672909941e-03
113         0.0000000000e+00
114         0.0000000000e+00
115        -1.7101065578e-02
 Sym= B2
 Ene=         2.9930057981e-01
 Spin= Beta
 Occup=         0.0000000000e+00
  1         0.0000000000e+00
  2         0.0000000000e+00
  3         0.0000000000e+00
  4         0.0000000000e+00
  5         0.0000000000e+00
  6         0.0000000000e+00
  7         1.0197423042e-01
  8         0.0000000000e+00
  9         0.0000000000e+00
 10         2.5744311776e-01
 11         0.0000000000e+00
 12         0.0000000000e+00
 13        -6.7341136277e-01
 14         0.0000000000e+00
 15         0.0000000000e+00
 16        -3.8695498802e+00
 17         0.0000000000e+00
 18         0.0000000000e+00
 19         0.0000000000e+00
 20        -4.3813896007e-03
 21         0.0000000000e+00
 22         0.0000000000e+00
 23         0.0000000000e+00
 24         0.0000000000e+00
 25         1.5518266979e-02
 26         0.0000000000e+00
 27         0.0000000000e+00
 28         0.0000000000e+00
 29         0.0000000000e+00
 30         8.2720557608e-01
 31         0.0000000000e+00
 32         0.0000000000e+00
 33         0.0000000000e+00
 34         0.0000000000e+00
 35         4.7608744867e-03
 36         0.0000000000e+00
 37         0.0000000000e+00
 38         0.0000000000e+00
 39        -2.1936085185e-03
 40         0.0000000000e+00
 41         0.0000000000e+00
 42        -8.9805972148e-02
 43         0.0000000000e+00
 44         0.0000000000e+00
 45         0.0000000000e+00
 46         5.0203910017e-02
 47         0.0000000000e+00
 48         0.0000000000e+00
 49         1.7730075808e-03
 50         0.0000000000e+00
 51         0.0000000000e+00
 52         0.0000000000e+00
 53        -1.0443241786e-02
 54         0.0000000000e+00
 55         0.0000000000e+00
 56        -3.6802298147e-02
 57         1.5116792844e-01
 58         2.7123701926e+00
 59         1.9426423680e+00
 60         0.0000000000e+00
 61         3.9119357667e-03
 62        -3.4492760311e-03
 63         0.0000000000e+00
 64        -2.0801464110e-01
 65         1.1936297009e-01
 66         0.0000000000e+00
 67        -1.2639586534e+00
 68         8.5275545999e-01
 69        -4.6424169479e-04
 70         0.0000000000e+00
 71        -1.2612377899e-03
 72        -1.3959724409e-03
 73         0.0000000000e+00
 74        -3.7823677758e-02
 75         0.0000000000e+00
 76        -1.5078372473e-01
 77        -1.2798098186e-01
 78         0.0000000000e+00
 79        -8.0882155466e-03
 80         0.0000000000e+00
 81         4.2434961683e-03
 82        -7.4536298732e-03
 83         0.0000000000e+00
 84         0.0000000000e+00
 85         7.0023479450e-03
 86         3.6802298147e-02
 87        -1.5116792844e-01
 88        -2.7123701926e+00
 89        -1.9426423680e+00
 90         0.0000000000e+00
 91         3.9119357667e-03
 92         3.4492760311e-03
 93         0.0000000000e+00
 94        -2.0801464110e-01
 95        -1.1936297009e-01
 96         0.0000000000e+00
 97        -1.2639586534e+00
 98        -8.5275545999e-01
 99         4.6424169479e-04
100         0.0000000000e+00
101        -1.2612377899e-03
102         1.3959724409e-03
103         0.0000000000e+00
104         3.7823677758e-02
105         0.0000000000e+00
106        -1.5078372473e-01
107         1.2798098186e-01
108         0.0000000000e+00
109         8.0882155466e-03
110         0.0000000000e+00
111         4.2434961683e-03
112         7.4536298732e-03
113         0.0000000000e+00
114         0.0000000000e+00
115         7.0023479450e-03
 Sym= A2
 Ene=         3.1435808862e-01
 Spin= Beta
 Occup=         0.0000000000e+00
  1         0.0000000000e+00
  2         0.0000000000e+00
  3         0.0000000000e+00
  4         0.0000000000e+00
  5         0.0000000000e+00
  6         0.0000000000e+00
  7         0.0000000000e+00
  8         0.0000000000e+00
  9         0.0000000000e+00
 10         0.0000000000e+00
 11         0.0000000000e+00
 12         0.0000000000e+00
 13         0.0000000000e+00
 14         0.0000000000e+00
 15         0.0000000000e+00
 16         0.0000000000e+00
 17         0.0000000000e+00
 18         0.0000000000e+00
 19         0.0000000000e+00
 20         0.0000000000e+00
 21         0.0000000000e+00
 22         6.6979454169e-03
 23         0.0000000000e+00
 24         0.0000000000e+00
 25         0.0000000000e+00
 26         0.0000000000e+00
 27         2.3831595174e-02
 28         0.0000000000e+00
 29         0.0000000000e+00
 30         0.0000000000e+00
 31         0.0000000000e+00
 32        -1.3955572884e-01
 33         0.0000000000e+00
 34         0.0000000000e+00
 35         0.0000000000e+00
 36         0.0000000000e+00
 37        -6.4812670307e-03
 38         0.0000000000e+00
 39         0.0000000000e+00
 40         0.0000000000e+00
 41         0.0000000000e+00
 42         0.0000000000e+00
 43         0.0000000000e+00
 44         4.9572488923e-02
 45         0.0000000000e+00
 46         0.0000000000e+00
 47         0.0000000000e+00
 48         0.0000000000e+00
 49         0.0000000000e+00
 50         0.0000000000e+00
 51        -1.5831968635e-03
 52         0.0000000000e+00
 53         0.0000000000e+00
 54         0.0000000000e+00
 55         3.5402482343e-03
 56         0.0000000000e+00
 57         0.0000000000e+00
 58         0.0000000000e+00
 59         0.0000000000e+00
 60         3.9165067917e-02
 61         0.0000000000e+00
 62         0.0000000000e+00
 63        -1.1739193146e-01
 64         0.0000000000e+00
 65         0.0000000000e+00
 66         9.8363989035e-01
 67         0.0000000000e+00
 68         0.0000000000e+00
 69         0.0000000000e+00
 70        -5.0879958254e-03
 71         0.0000000000e+00
 72         0.0000000000e+00
 73         2.0887361197e-03
 74         0.0000000000e+00
 75         6.7689218199e-02
 76         0.0000000000e+00
 77         0.0000000000e+00
 78        -6.1048079297e-02
 79         0.0000000000e+00
 80         3.0176348493e-03
 81         0.0000000000e+00
 82         0.0000000000e+00
 83        -1.3795671425e-02
 84        -1.1282586969e-02
 85         0.0000000000e+00
 86         0.0000000000e+00
 87         0.0000000000e+00
 88         0.0000000000e+00
 89         0.0000000000e+00
 90        -3.9165067917e-02
 91         0.0000000000e+00
 92         0.0000000000e+00
 93         1.1739193146e-01
 94         0.0000000000e+00
 95         0.0000000000e+00
 96        -9.8363989035e-01
 97         0.0000000000e+00
 98         0.0000000000e+00
 99         0.0000000000e+00
100         5.0879958254e-03
101         0.0000000000e+00
102         0.0000000000e+00
103         2.0887361197e-03
104         0.0000000000e+00
105        -6.7689218199e-02
106         0.0000000000e+00
107         0.0000000000e+00
108        -6.1048079297e-02
109         0.0000000000e+00
110        -3.0176348493e-03
111         0.0000000000e+00
112         0.0000000000e+00
113        -1.3795671425e-02
114         1.1282586969e-02
115         0.0000000000e+00
 Sym= B1
 Ene=         4.0393714585e-01
 Spin= Beta
 Occup=         0.0000000000e+00
  1         0.0000000000e+00
  2         0.0000000000e+00
  3         0.0000000000e+00
  4         0.0000000000e+00
  5         0.0000000000e+00
  6         2.0917326903e-04
  7         0.0000000000e+00
  8         0.0000000000e+00
  9         1.3834754324e-03
 10         0.0000000000e+00
 11         0.0000000000e+00
 12        -1.0088587588e-01
 13         0.0000000000e+00
 14         0.0000000000e+00
 15        -1.5084684213e+00
 16         0.0000000000e+00
 17         0.0000000000e+00
 18         0.0000000000e+00
 19        -8.1793767371e-03
 20         0.0000000000e+00
 21         0.0000000000e+00
 22         0.0000000000e+00
 23         0.0000000000e+00
 24        -1.7764898612e-02
 25         0.0000000000e+00
 26         0.0000000000e+00
 27         0.0000000000e+00
 28         0.0000000000e+00
 29         8.3672304850e-02
 30         0.0000000000e+00
 31         0.0000000000e+00
 32         0.0000000000e+00
 33         0.0000000000e+00
 34         3.2211076111e-03
 35         0.0000000000e+00
 36         0.0000000000e+00
 37         0.0000000000e+00
 38        -6.3945024194e-03
 39         0.0000000000e+00
 40         0.0000000000e+00
 41        -1.9867867307e-02
 42         0.0000000000e+00
 43         0.0000000000e+00
 44         0.0000000000e+00
 45         4.9909799699e-02
 46         0.0000000000e+00
 47         0.0000000000e+00
 48         9.9587838850e-04
 49         0.0000000000e+00
 50         0.0000000000e+00
 51         0.0000000000e+00
 52        -4.2607456125e-03
 53         0.0000000000e+00
 54         0.0000000000e+00
 55         0.0000000000e+00
 56         0.0000000000e+00
 57         0.0000000000e+00
 58         0.0000000000e+00
 59         0.0000000000e+00
 60         3.9649570365e-02
 61         0.0000000000e+00
 62         0.0000000000e+00
 63        -1.4059907606e-01
 64         0.0000000000e+00
 65         0.0000000000e+00
 66         1.1997461289e+00
 67         0.0000000000e+00
 68         0.0000000000e+00
 69         0.0000000000e+00
 70         1.0340102236e-03
 71         0.0000000000e+00
 72         0.0000000000e+00
 73         1.1067086630e-02
 74         0.0000000000e+00
 75         2.5565652160e-02
 76         0.0000000000e+00
 77         0.0000000000e+00
 78        -1.1730770964e-01
 79         0.0000000000e+00
 80         2.1601971216e-03
 81         0.0000000000e+00
 82         0.0000000000e+00
 83        -1.2610158564e-02
 84        -1.3409128799e-02
 85         0.0000000000e+00
 86         0.0000000000e+00
 87         0.0000000000e+00
 88         0.0000000000e+00
 89         0.0000000000e+00
 90         3.9649570365e-02
 91         0.0000000000e+00
 92         0.0000000000e+00
 93        -1.4059907606e-01
 94         0.0000000000e+00
 95         0.0000000000e+00
 96         1.1997461289e+00
 97         0.0000000000e+00
 98         0.0000000000e+00
 99         0.0000000000e+00
100         1.0340102236e-03
101         0.0000000000e+00
102         0.0000000000e+00
103        -1.1067086630e-02
104         0.0000000000e+00
105         2.5565652160e-02
106         0.0000000000e+00
107         0.0000000000e+00
108         1.1730770964e-01
109         0.0000000000e+00
110         2.1601971216e-03
111         0.0000000000e+00
112         0.0000000000e+00
113         1.2610158564e-02
114        -1.3409128799e-02
115         0.0000000000e+00
 Sym= A1
 Ene=         4.9546788408e-01
 Spin= Beta
 Occup=         0.0000000000e+00
  1         1.7270352807e-02
  2        -1.4956193279e-01
  3        -9.8686055026e-02
  4        -1.3579097281e+00
  5         8.2982332892e+00
  6         0.0000000000e+00
  7         0.0000000000e+00
  8        -3.4533976460e-02
  9         0.0000000000e+00
 10         0.0000000000e+00
 11         1.1060487084e-01
 12         0.0000000000e+00
 13         0.0000000000e+00
 14        -1.1267742960e+00
 15         0.0000000000e+00
 16         0.0000000000e+00
 17        -2.0124556822e+00
 18        -6.2654555557e-03
 19         0.0000000000e+00
 20         0.0000000000e+00
 21         1.5098089193e-02
 22         0.0000000000e+00
 23         9.8094514977e-03
 24         0.0000000000e+00
 25         0.0000000000e+00
 26        -4.0708204193e-02
 27         0.0000000000e+00
 28        -1.0652386269e-01
 29         0.0000000000e+00
 30         0.0000000000e+00
 31        -4.8600257106e-01
 32         0.0000000000e+00
 33        -6.7699441959e-03
 34         0.0000000000e+00
 35         0.0000000000e+00
 36        -1.2115159954e-02
 37         0.0000000000e+00
 38         0.0000000000e+00
 39         0.0000000000e+00
 40         9.4635705349e-02
 41         0.0000000000e+00
 42         0.0000000000e+00
 43         1.7068514445e-01
 44         0.0000000000e+00
 45         0.0000000000e+00
 46         0.0000000000e+00
 47        -1.0605106458e-02
 48         0.0000000000e+00
 49         0.0000000000e+00
 50        -1.3686934004e-02
 51         0.0000000000e+00
 52         0.0000000000e+00
 53         0.0000000000e+00
 54         9.3874020384e-03
 55         0.0000000000e+00
 56         2.5885736358e-02
 57        -2.4878784100e-01
 58        -3.3000982870e+00
 59        -6.3150653561e-01
 60         0.0000000000e+00
 61        -1.1137450299e-02
 62         1.8702849183e-02
 63         0.0000000000e+00
 64         2.7239513592e-01
 65        -2.5588637617e-01
 66         0.0000000000e+00
 67         1.0177573208e+00
 68        -4.6991931729e-01
 69         4.5195129941e-03
 70         0.0000000000e+00
 71         1.5755441330e-02
 72         7.3396089539e-03
 73         0.0000000000e+00
 74        -3.3306516516e-02
 75         0.0000000000e+00
 76         1.2047859951e-01
 77         1.0089392370e-01
 78         0.0000000000e+00
 79         5.0879308114e-03
 80         0.0000000000e+00
 81        -3.7188621950e-03
 82        -1.2702855675e-04
 83         0.0000000000e+00
 84         0.0000000000e+00
 85        -1.5947572523e-04
 86         2.5885736358e-02
 87        -2.4878784100e-01
 88        -3.3000982870e+00
 89        -6.3150653561e-01
 90         0.0000000000e+00
 91         1.1137450299e-02
 92         1.8702849183e-02
 93         0.0000000000e+00
 94        -2.7239513592e-01
 95        -2.5588637617e-01
 96         0.0000000000e+00
 97        -1.0177573208e+00
 98        -4.6991931729e-01
 99         4.5195129941e-03
100         0.0000000000e+00
101        -1.5755441330e-02
102         7.3396089539e-03
103         0.0000000000e+00
104        -3.3306516516e-02
105         0.0000000000e+00
106        -1.2047859951e-01
107         1.0089392370e-01
108         0.0000000000e+00
109         5.0879308114e-03
110         0.0000000000e+00
111         3.7188621950e-03
112        -1.2702855675e-04
113         0.0000000000e+00
114         0.0000000000e+00
115         1.5947572523e-04
 Sym= B2
 Ene=         5.9148206586e-01
 Spin= Beta
 Occup=         0.0000000000e+00
  1         0.0000000000e+00
  2         0.0000000000e+00
  3         0.0000000000e+00
  4         0.0000000000e+00
  5         0.0000000000e+00
  6         0.0000000000e+00
  7         1.0315566069e-02
  8         0.0000000000e+00
  9         0.0000000000e+00
 10        -2.1500901544e-02
 11         0.0000000000e+00
 12         0.0000000000e+00
 13         3.7525139034e-01
 14         0.0000000000e+00
 15         0.0000000000e+00
 16         2.4605633771e+00
 17         0.0000000000e+00
 18         0.0000000000e+00
 19         0.0000000000e+00
 20         1.0293459842e-03
 21         0.0000000000e+00
 22         0.0000000000e+00
 23         0.0000000000e+00
 24         0.0000000000e+00
 25        -5.5814540242e-03
 26         0.0000000000e+00
 27         0.0000000000e+00
 28         0.0000000000e+00
 29         0.0000000000e+00
 30        -1.8250049126e-01
 31         0.0000000000e+00
 32         0.0000000000e+00
 33         0.0000000000e+00
 34         0.0000000000e+00
 35         4.4123412746e-03
 36         0.0000000000e+00
 37         0.0000000000e+00
 38         0.0000000000e+00
 39         4.7351114762e-03
 40         0.0000000000e+00
 41         0.0000000000e+00
 42        -2.4270543471e-02
 43         0.0000000000e+00
 44         0.0000000000e+00
 45         0.0000000000e+00
 46        -4.6355284283e-02
 47         0.0000000000e+00
 48         0.0000000000e+00
 49         4.0300209366e-03
 50         0.0000000000e+00
 51         0.0000000000e+00
 52         0.0000000000e+00
 53         5.0149818723e-03
 54         0.0000000000e+00
 55         0.0000000000e+00
 56         1.9150485153e-03
 57        -6.1460229097e-02
 58        -1.5109856150e+00
 59        -1.6528348664e-01
 60         0.0000000000e+00
 61        -3.6451700848e-02
 62        -3.5798956064e-02
 63         0.0000000000e+00
 64         2.0143237311e-01
 65         1.0092407887e-01
 66         0.0000000000e+00
 67        -6.8411874966e-01
 68        -1.3254999647e+00
 69         3.5166224772e-03
 70         0.0000000000e+00
 71         1.8601911634e-03
 72         7.8316614722e-03
 73         0.0000000000e+00
 74        -6.2629247780e-02
 75         0.0000000000e+00
 76         4.9691875300e-02
 77        -2.7712811923e-02
 78         0.0000000000e+00
 79        -6.3213150306e-03
 80         0.0000000000e+00
 81         1.8323630933e-02
 82         2.1413569788e-03
 83         0.0000000000e+00
 84         0.0000000000e+00
 85         9.1572817278e-03
 86        -1.9150485153e-03
 87         6.1460229097e-02
 88         1.5109856150e+00
 89         1.6528348664e-01
 90         0.0000000000e+00
 91        -3.6451700848e-02
 92         3.5798956064e-02
 93         0.0000000000e+00
 94         2.0143237311e-01
 95        -1.0092407887e-01
 96         0.0000000000e+00
 97        -6.8411874966e-01
 98         1.3254999647e+00
 99        -3.5166224772e-03
100         0.0000000000e+00
101         1.8601911634e-03
102        -7.8316614722e-03
103         0.0000000000e+00
104         6.2629247780e-02
105         0.0000000000e+00
106         4.9691875300e-02
107         2.7712811923e-02
108         0.0000000000e+00
109         6.3213150306e-03
110         0.0000000000e+00
111         1.8323630933e-02
112        -2.1413569788e-03
113         0.0000000000e+00
114         0.0000000000e+00
115         9.1572817278e-03
 Sym= A1
 Ene=         7.4099568460e-01
 Spin= Beta
 Occup=         0.0000000000e+00
  1         2.4267544724e-02
  2        -3.0797134421e-02
  3         2.3379553191e-01
  4        -1.9785674020e+00
  5        -7.5620732425e+00
  6         0.0000000000e+00
  7         0.0000000000e+00
  8         8.9338848908e-02
  9         0.0000000000e+00
 10         0.0000000000e+00
 11         9.2562517056e-02
 12         0.0000000000e+00
 13         0.0000000000e+00
 14         1.5666318798e+00
 15         0.0000000000e+00
 16         0.0000000000e+00
 17         1.2980544860e+00
 18         3.6415582474e-03
 19         0.0000000000e+00
 20         0.0000000000e+00
 21        -1.7295210431e-02
 22         0.0000000000e+00
 23        -1.9961169279e-02
 24         0.0000000000e+00
 25         0.0000000000e+00
 26         6.9950658241e-02
 27         0.0000000000e+00
 28         1.1781218317e-01
 29         0.0000000000e+00
 30         0.0000000000e+00
 31         1.0007660435e-01
 32         0.0000000000e+00
 33        -7.2977914687e-03
 34         0.0000000000e+00
 35         0.0000000000e+00
 36        -1.6833139405e-02
 37         0.0000000000e+00
 38         0.0000000000e+00
 39         0.0000000000e+00
 40        -4.2423954044e-03
 41         0.0000000000e+00
 42         0.0000000000e+00
 43         1.8264311483e-02
 44         0.0000000000e+00
 45         0.0000000000e+00
 46         0.0000000000e+00
 47         1.5848311340e-03
 48         0.0000000000e+00
 49         0.0000000000e+00
 50         1.5834591699e-03
 51         0.0000000000e+00
 52         0.0000000000e+00
 53         0.0000000000e+00
 54         1.5074724477e-03
 55         0.0000000000e+00
 56         1.4035598272e-02
 57        -7.2258558169e-02
 58         3.9783716772e+00
 59         5.4622666712e-01
 60         0.0000000000e+00
 61        -2.7300437022e-03
 62        -9.8901174593e-04
 63         0.0000000000e+00
 64        -1.6073436425e-02
 65         1.9410677005e-02
 66         0.0000000000e+00
 67        -2.3032985660e+00
 68         1.7268581384e+00
 69        -7.6136458922e-03
 70         0.0000000000e+00
 71         1.4437848357e-02
 72         5.9728773484e-03
 73         0.0000000000e+00
 74         4.1099909978e-02
 75         0.0000000000e+00
 76        -2.9350203690e-01
 77        -1.8818323239e-01
 78         0.0000000000e+00
 79        -2.3806493644e-02
 80         0.0000000000e+00
 81        -1.3859306100e-02
 82        -4.1864355569e-02
 83         0.0000000000e+00
 84         0.0000000000e+00
 85         1.8718530601e-02
 86         1.4035598272e-02
 87        -7.2258558169e-02
 88         3.9783716772e+00
 89         5.4622666712e-01
 90         0.0000000000e+00
 91         2.7300437022e-03
 92        -9.8901174593e-04
 93         0.0000000000e+00
 94         1.6073436425e-02
 95         1.9410677005e-02
 96         0.0000000000e+00
 97         2.3032985660e+00
 98         1.7268581384e+00
 99        -7.6136458922e-03
100         0.0000000000e+00
101        -1.4437848357e-02
102         5.9728773484e-03
103         0.0000000000e+00
104         4.1099909978e-02
105         0.0000000000e+00
106         2.9350203690e-01
107        -1.8818323239e-01
108         0.0000000000e+00
109        -2.3806493644e-02
110         0.0000000000e+00
111         1.3859306100e-02
112        -4.1864355569e-02
113         0.0000000000e+00
114         0.0000000000e+00
115        -1.8718530601e-02
 Sym= B2
 Ene=         7.9828755459e-01
 Spin= Beta
 Occup=         0.0000000000e+00
  1         0.0000000000e+00
  2         0.0000000000e+00
  3         0.0000000000e+00
  4         0.0000000000e+00
  5         0.0000000000e+00
  6         0.0000000000e+00
  7         9.1530435133e-02
  8         0.0000000000e+00
  9         0.0000000000e+00
 10         1.4542352171e-01
 11         0.0000000000e+00
 12         0.0000000000e+00
 13         1.4363198765e+00
 14         0.0000000000e+00
 15         0.0000000000e+00
 16         1.5361549246e+00
 17         0.0000000000e+00
 18         0.0000000000e+00
 19         0.0000000000e+00
 20         1.9559370339e-02
 21         0.0000000000e+00
 22         0.0000000000e+00
 23         0.0000000000e+00
 24         0.0000000000e+00
 25        -6.8957971947e-02
 26         0.0000000000e+00
 27         0.0000000000e+00
 28         0.0000000000e+00
 29         0.0000000000e+00
 30         3.2322616760e-01
 31         0.0000000000e+00
 32         0.0000000000e+00
 33         0.0000000000e+00
 34         0.0000000000e+00
 35         1.1439271991e-02
 36         0.0000000000e+00
 37         0.0000000000e+00
 38         0.0000000000e+00
 39        -8.5797948094e-03
 40         0.0000000000e+00
 41         0.0000000000e+00
 42        -8.8520598170e-02
 43         0.0000000000e+00
 44         0.0000000000e+00
 45         0.0000000000e+00
 46         2.9998515976e-02
 47         0.0000000000e+00
 48         0.0000000000e+00
 49         4.3150666703e-03
 50         0.0000000000e+00
 51         0.0000000000e+00
 52         0.0000000000e+00
 53        -5.9045068046e-03
 54         0.0000000000e+00
 55         0.0000000000e+00
 56        -4.1308610660e-02
 57         6.4770626185e-02
 58        -2.3340961568e+00
 59        -1.2290628796e+00
 60         0.0000000000e+00
 61         1.7764501781e-02
 62        -1.2510772155e-02
 63         0.0000000000e+00
 64        -1.5244315867e-01
 65         8.0045967680e-02
 66         0.0000000000e+00
 67         2.0508121278e+00
 68        -1.5230754404e+00
 69        -8.4994631472e-03
 70         0.0000000000e+00
 71        -1.3881631738e-02
 72        -1.7979660173e-02
 73         0.0000000000e+00
 74        -8.3505027564e-03
 75         0.0000000000e+00
 76         2.2828628398e-01
 77         1.5500975579e-01
 78         0.0000000000e+00
 79         9.1742193712e-03
 80         0.0000000000e+00
 81         2.6901361829e-02
 82         2.6959066048e-02
 83         0.0000000000e+00
 84         0.0000000000e+00
 85        -1.7441451815e-02
 86         4.1308610660e-02
 87        -6.4770626185e-02
 88         2.3340961568e+00
 89         1.2290628796e+00
 90         0.0000000000e+00
 91         1.7764501781e-02
 92         1.2510772155e-02
 93         0.0000000000e+00
 94        -1.5244315867e-01
 95        -8.0045967680e-02
 96         0.0000000000e+00
 97         2.0508121278e+00
 98         1.5230754404e+00
 99         8.4994631472e-03
100         0.0000000000e+00
101        -1.3881631738e-02
102         1.7979660173e-02
103         0.0000000000e+00
104         8.3505027564e-03
105         0.0000000000e+00
106         2.2828628398e-01
107        -1.5500975579e-01
108         0.0000000000e+00
109        -9.1742193712e-03
110         0.0000000000e+00
111         2.6901361829e-02
112        -2.6959066048e-02
113         0.0000000000e+00
114         0.0000000000e+00
115        -1.7441451815e-02
 Sym= B2
 Ene=         1.0213778138e+00
 Spin= Beta
 Occup=         0.0000000000e+00
  1         0.0000000000e+00
  2         0.0000000000e+00
  3         0.0000000000e+00
  4         0.0000000000e+00
  5         0.0000000000e+00
  6         0.0000000000e+00
  7         4.5466720743e-02
  8         0.0000000000e+00
  9         0.0000000000e+00
 10        -1.2691318659e-01
 11         0.0000000000e+00
 12         0.0000000000e+00
 13         3.9937110225e+00
 14         0.0000000000e+00
 15         0.0000000000e+00
 16         4.1422738258e+00
 17         0.0000000000e+00
 18         0.0000000000e+00
 19         0.0000000000e+00
 20         2.6228663978e-02
 21         0.0000000000e+00
 22         0.0000000000e+00
 23         0.0000000000e+00
 24         0.0000000000e+00
 25        -3.3377840013e-01
 26         0.0000000000e+00
 27         0.0000000000e+00
 28         0.0000000000e+00
 29         0.0000000000e+00
 30        -2.1231554710e+00
 31         0.0000000000e+00
 32         0.0000000000e+00
 33         0.0000000000e+00
 34         0.0000000000e+00
 35         2.3798651040e-03
 36         0.0000000000e+00
 37         0.0000000000e+00
 38         0.0000000000e+00
 39        -7.4469916256e-03
 40         0.0000000000e+00
 41         0.0000000000e+00
 42         1.7815708915e-01
 43         0.0000000000e+00
 44         0.0000000000e+00
 45         0.0000000000e+00
 46        -1.6253297046e-01
 47         0.0000000000e+00
 48         0.0000000000e+00
 49         1.1245220368e-02
 50         0.0000000000e+00
 51         0.0000000000e+00
 52         0.0000000000e+00
 53         3.2032524596e-02
 54         0.0000000000e+00
 55         0.0000000000e+00
 56         7.8796285133e-02
 57         2.0698668357e-01
 58        -7.8102014877e+00
 59        -2.4762907580e-01
 60         0.0000000000e+00
 61        -8.1500734914e-02
 62         6.7859011042e-02
 63         0.0000000000e+00
 64         7.6848311041e-01
 65        -6.1834865866e-01
 66         0.0000000000e+00
 67         2.7851634137e+00
 68        -1.8614469908e+00
 69        -7.7563296429e-03
 70         0.0000000000e+00
 71         1.5481647894e-02
 72         1.1940192501e-02
 73         0.0000000000e+00
 74         5.7888571462e-02
 75         0.0000000000e+00
 76         5.7259123073e-01
 77         3.9597851605e-01
 78         0.0000000000e+00
 79         3.0391317638e-02
 80         0.0000000000e+00
 81         2.5440208709e-02
 82         5.7825363635e-02
 83         0.0000000000e+00
 84         0.0000000000e+00
 85        -3.7075919279e-02
 86        -7.8796285133e-02
 87        -2.0698668357e-01
 88         7.8102014877e+00
 89         2.4762907580e-01
 90         0.0000000000e+00
 91        -8.1500734914e-02
 92        -6.7859011042e-02
 93         0.0000000000e+00
 94         7.6848311041e-01
 95         6.1834865866e-01
 96         0.0000000000e+00
 97         2.7851634137e+00
 98         1.8614469908e+00
 99         7.7563296429e-03
100         0.0000000000e+00
101         1.5481647894e-02
102        -1.1940192501e-02
103         0.0000000000e+00
104        -5.7888571462e-02
105         0.0000000000e+00
106         5.7259123073e-01
107        -3.9597851605e-01
108         0.0000000000e+00
109        -3.0391317638e-02
110         0.0000000000e+00
111         2.5440208709e-02
112        -5.7825363635e-02
113         0.0000000000e+00
114         0.0000000000e+00
115        -3.7075919279e-02
 Sym= A1
 Ene=         1.0398395135e+00
 Spin= Beta
 Occup=         0.0000000000e+00
  1         9.0021933626e-02
  2         1.4099032679e-01
  3         7.5444082901e-01
  4        -2.8592640537e+00
  5        -9.1621049140e+00
  6         0.0000000000e+00
  7         0.0000000000e+00
  8         1.0194057377e-02
  9         0.0000000000e+00
 10         0.0000000000e+00
 11        -4.2569049559e-02
 12         0.0000000000e+00
 13         0.0000000000e+00
 14         2.0730869019e+00
 15         0.0000000000e+00
 16         0.0000000000e+00
 17         2.1645624454e+00
 18         1.0910992922e-02
 19         0.0000000000e+00
 20         0.0000000000e+00
 21        -7.3382683468e-03
 22         0.0000000000e+00
 23        -1.4821474218e-02
 24         0.0000000000e+00
 25         0.0000000000e+00
 26         2.0410668505e-01
 27         0.0000000000e+00
 28         5.5706670143e-01
 29         0.0000000000e+00
 30         0.0000000000e+00
 31         1.6356151348e+00
 32         0.0000000000e+00
 33        -3.0753712141e-03
 34         0.0000000000e+00
 35         0.0000000000e+00
 36        -1.1681850152e-02
 37         0.0000000000e+00
 38         0.0000000000e+00
 39         0.0000000000e+00
 40        -1.8057439758e-01
 41         0.0000000000e+00
 42         0.0000000000e+00
 43        -2.7906574494e-01
 44         0.0000000000e+00
 45         0.0000000000e+00
 46         0.0000000000e+00
 47         1.4953199992e-02
 48         0.0000000000e+00
 49         0.0000000000e+00
 50         1.5084553644e-02
 51         0.0000000000e+00
 52         0.0000000000e+00
 53         0.0000000000e+00
 54        -1.9200849348e-02
 55         0.0000000000e+00
 56        -8.2808862584e-02
 57        -4.0756518991e-01
 58         6.7824787157e+00
 59        -2.6806636580e-01
 60         0.0000000000e+00
 61         7.9652249438e-02
 62        -5.2419955690e-02
 63         0.0000000000e+00
 64        -7.5316564051e-01
 65         4.9528079796e-01
 66         0.0000000000e+00
 67        -1.6455139036e+00
 68         1.6924005666e+00
 69        -8.7890997521e-03
 70         0.0000000000e+00
 71        -2.3325964002e-02
 72        -1.7627817385e-02
 73         0.0000000000e+00
 74         1.2797750070e-01
 75         0.0000000000e+00
 76        -4.8612823878e-01
 77        -2.6606483207e-01
 78         0.0000000000e+00
 79        -2.6585650472e-02
 80         0.0000000000e+00
 81        -4.3244167047e-02
 82        -5.7990476628e-02
 83         0.0000000000e+00
 84         0.0000000000e+00
 85         2.1984882554e-02
 86        -8.2808862584e-02
 87        -4.0756518991e-01
 88         6.7824787157e+00
 89        -2.6806636580e-01
 90         0.0000000000e+00
 91        -7.9652249438e-02
 92        -5.2419955690e-02
 93         0.0000000000e+00
 94         7.5316564051e-01
 95         4.9528079796e-01
 96         0.0000000000e+00
 97         1.6455139036e+00
 98         1.6924005666e+00
 99        -8.7890997521e-03
100         0.0000000000e+00
101         2.3325964002e-02
102        -1.7627817385e-02
103         0.0000000000e+00
104         1.2797750070e-01
105         0.0000000000e+00
106         4.8612823878e-01
107        -2.6606483207e-01
108         0.0000000000e+00
109        -2.6585650472e-02
110         0.0000000000e+00
111         4.3244167047e-02
112        -5.7990476628e-02
113         0.0000000000e+00
114         0.0000000000e+00
115        -2.1984882554e-02
 Sym= B1
 Ene=         1.0642725930e+00
 Spin= Beta
 Occup=         0.0000000000e+00
  1         0.0000000000e+00
  2         0.0000000000e+00
  3         0.0000000000e+00
  4         0.0000000000e+00
  5         0.0000000000e+00
  6         3.9573983577e-03
  7         0.0000000000e+00
  8         0.0000000000e+00
  9        -5.7140658055e-02
 10         0.0000000000e+00
 11         0.0000000000e+00
 12         3.6191448746e-01
 13         0.0000000000e+00
 14         0.0000000000e+00
 15         1.0570734182e+00
 16         0.0000000000e+00
 17         0.0000000000e+00
 18         0.0000000000e+00
 19        -4.4104911494e-02
 20         0.0000000000e+00
 21         0.0000000000e+00
 22         0.0000000000e+00
 23         0.0000000000e+00
 24         7.6432429451e-02
 25         0.0000000000e+00
 26         0.0000000000e+00
 27         0.0000000000e+00
 28         0.0000000000e+00
 29        -1.3925528210e+00
 30         0.0000000000e+00
 31         0.0000000000e+00
 32         0.0000000000e+00
 33         0.0000000000e+00
 34        -2.5801450906e-03
 35         0.0000000000e+00
 36         0.0000000000e+00
 37         0.0000000000e+00
 38         7.7881622338e-03
 39         0.0000000000e+00
 40         0.0000000000e+00
 41         4.4464608516e-02
 42         0.0000000000e+00
 43         0.0000000000e+00
 44         0.0000000000e+00
 45        -1.0186875572e-01
 46         0.0000000000e+00
 47         0.0000000000e+00
 48         4.2557825512e-03
 49         0.0000000000e+00
 50         0.0000000000e+00
 51         0.0000000000e+00
 52         2.4639123847e-02
 53         0.0000000000e+00
 54         0.0000000000e+00
 55         0.0000000000e+00
 56         0.0000000000e+00
 57         0.0000000000e+00
 58         0.0000000000e+00
 59         0.0000000000e+00
 60         1.7156131503e-03
 61         0.0000000000e+00
 62         0.0000000000e+00
 63        -1.9740934909e-02
 64         0.0000000000e+00
 65         0.0000000000e+00
 66        -9.9275371684e-01
 67         0.0000000000e+00
 68         0.0000000000e+00
 69         0.0000000000e+00
 70         1.4834937010e-02
 71         0.0000000000e+00
 72         0.0000000000e+00
 73         1.0045046171e-02
 74         0.0000000000e+00
 75        -1.9420467953e-01
 76         0.0000000000e+00
 77         0.0000000000e+00
 78         7.6624158278e-02
 79         0.0000000000e+00
 80        -2.9711234354e-03
 81         0.0000000000e+00
 82         0.0000000000e+00
 83         2.7664231420e-02
 84         3.2743657454e-02
 85         0.0000000000e+00
 86         0.0000000000e+00
 87         0.0000000000e+00
 88         0.0000000000e+00
 89         0.0000000000e+00
 90         1.7156131503e-03
 91         0.0000000000e+00
 92         0.0000000000e+00
 93        -1.9740934909e-02
 94         0.0000000000e+00
 95         0.0000000000e+00
 96        -9.9275371684e-01
 97         0.0000000000e+00
 98         0.0000000000e+00
 99         0.0000000000e+00
100         1.4834937010e-02
101         0.0000000000e+00
102         0.0000000000e+00
103        -1.0045046171e-02
104         0.0000000000e+00
105        -1.9420467953e-01
106         0.0000000000e+00
107         0.0000000000e+00
108        -7.6624158278e-02
109         0.0000000000e+00
110        -2.9711234354e-03
111         0.0000000000e+00
112         0.0000000000e+00
113        -2.7664231420e-02
114         3.2743657454e-02
115         0.0000000000e+00
 Sym= A2
 Ene=         1.0976047172e+00
 Spin= Beta
 Occup=         0.0000000000e+00
  1         0.0000000000e+00
  2         0.0000000000e+00
  3         0.0000000000e+00
  4         0.0000000000e+00
  5         0.0000000000e+00
  6         0.0000000000e+00
  7         0.0000000000e+00
  8         0.0000000000e+00
  9         0.0000000000e+00
 10         0.0000000000e+00
 11         0.0000000000e+00
 12         0.0000000000e+00
 13         0.0000000000e+00
 14         0.0000000000e+00
 15         0.0000000000e+00
 16         0.0000000000e+00
 17         0.0000000000e+00
 18         0.0000000000e+00
 19         0.0000000000e+00
 20         0.0000000000e+00
 21         0.0000000000e+00
 22         3.9973688733e-02
 23         0.0000000000e+00
 24         0.0000000000e+00
 25         0.0000000000e+00
 26         0.0000000000e+00
 27        -5.2453653686e-02
 28         0.0000000000e+00
 29         0.0000000000e+00
 30         0.0000000000e+00
 31         0.0000000000e+00
 32         1.7284072358e+00
 33         0.0000000000e+00
 34         0.0000000000e+00
 35         0.0000000000e+00
 36         0.0000000000e+00
 37         1.4491562567e-02
 38         0.0000000000e+00
 39         0.0000000000e+00
 40         0.0000000000e+00
 41         0.0000000000e+00
 42         0.0000000000e+00
 43         0.0000000000e+00
 44        -2.0240963198e-01
 45         0.0000000000e+00
 46         0.0000000000e+00
 47         0.0000000000e+00
 48         0.0000000000e+00
 49         0.0000000000e+00
 50         0.0000000000e+00
 51         1.8025425358e-02
 52         0.0000000000e+00
 53         0.0000000000e+00
 54         0.0000000000e+00
 55        -2.4622360539e-02
 56         0.0000000000e+00
 57         0.0000000000e+00
 58         0.0000000000e+00
 59         0.0000000000e+00
 60         7.7072484127e-03
 61         0.0000000000e+00
 62         0.0000000000e+00
 63        -4.8835690093e-02
 64         0.0000000000e+00
 65         0.0000000000e+00
 66        -9.6792938000e-01
 67         0.0000000000e+00
 68         0.0000000000e+00
 69         0.0000000000e+00
 70        -7.0880857284e-03
 71         0.0000000000e+00
 72         0.0000000000e+00
 73        -5.5686134799e-03
 74         0.0000000000e+00
 75        -1.0801947701e-01
 76         0.0000000000e+00
 77         0.0000000000e+00
 78         2.5139524679e-01
 79         0.0000000000e+00
 80        -1.1853217140e-02
 81         0.0000000000e+00
 82         0.0000000000e+00
 83         4.8720931763e-02
 84         3.2706764994e-02
 85         0.0000000000e+00
 86         0.0000000000e+00
 87         0.0000000000e+00
 88         0.0000000000e+00
 89         0.0000000000e+00
 90        -7.7072484127e-03
 91         0.0000000000e+00
 92         0.0000000000e+00
 93         4.8835690093e-02
 94         0.0000000000e+00
 95         0.0000000000e+00
 96         9.6792938000e-01
 97         0.0000000000e+00
 98         0.0000000000e+00
 99         0.0000000000e+00
100         7.0880857284e-03
101         0.0000000000e+00
102         0.0000000000e+00
103        -5.5686134799e-03
104         0.0000000000e+00
105         1.0801947701e-01
106         0.0000000000e+00
107         0.0000000000e+00
108         2.5139524679e-01
109         0.0000000000e+00
110         1.1853217140e-02
111         0.0000000000e+00
112         0.0000000000e+00
113         4.8720931763e-02
114        -3.2706764994e-02
115         0.0000000000e+00
 Sym= A1
 Ene=         1.2157395835e+00
 Spin= Beta
 Occup=         0.0000000000e+00
  1         2.6333342947e-02
  2         6.3707057362e-02
  3         2.4662897067e-01
  4        -5.0931912023e-01
  5        -7.6931250182e+00
  6         0.0000000000e+00
  7         0.0000000000e+00
  8         4.4416474559e-02
  9         0.0000000000e+00
 10         0.0000000000e+00
 11        -4.5923646238e-02
 12         0.0000000000e+00
 13         0.0000000000e+00
 14         1.5587010567e+00
 15         0.0000000000e+00
 16         0.0000000000e+00
 17         3.1591248882e+00
 18        -4.1996287295e-02
 19         0.0000000000e+00
 20         0.0000000000e+00
 21         6.3300575639e-03
 22         0.0000000000e+00
 23         4.6987364914e-02
 24         0.0000000000e+00
 25         0.0000000000e+00
 26         2.9561423140e-02
 27         0.0000000000e+00
 28        -1.7891686802e+00
 29         0.0000000000e+00
 30         0.0000000000e+00
 31         5.2798624726e-01
 32         0.0000000000e+00
 33        -1.0108314371e-02
 34         0.0000000000e+00
 35         0.0000000000e+00
 36        -1.5629861067e-03
 37         0.0000000000e+00
 38         0.0000000000e+00
 39         0.0000000000e+00
 40         5.8358701104e-02
 41         0.0000000000e+00
 42         0.0000000000e+00
 43        -1.1153671653e-01
 44         0.0000000000e+00
 45         0.0000000000e+00
 46         0.0000000000e+00
 47         1.4191594676e-02
 48         0.0000000000e+00
 49         0.0000000000e+00
 50         3.0002472822e-02
 51         0.0000000000e+00
 52         0.0000000000e+00
 53         0.0000000000e+00
 54         1.6763706344e-03
 55         0.0000000000e+00
 56        -2.4349556621e-02
 57        -2.0313353620e-02
 58         4.5911975755e+00
 59         6.6903918143e-02
 60         0.0000000000e+00
 61         3.4956910780e-02
 62        -1.3191969831e-02
 63         0.0000000000e+00
 64        -3.0015132426e-01
 65         1.8200912606e-01
 66         0.0000000000e+00
 67        -1.8946861405e+00
 68         1.3815248834e-02
 69         8.0450202478e-03
 70         0.0000000000e+00
 71        -9.0300844267e-03
 72        -3.7917177105e-03
 73         0.0000000000e+00
 74        -2.0799160891e-01
 75         0.0000000000e+00
 76        -1.0395319098e-01
 77        -2.6361576171e-01
 78         0.0000000000e+00
 79        -1.3109736895e-02
 80         0.0000000000e+00
 81         3.4599687869e-02
 82        -1.4635686482e-02
 83         0.0000000000e+00
 84         0.0000000000e+00
 85         3.8695061697e-02
 86        -2.4349556621e-02
 87        -2.0313353620e-02
 88         4.5911975755e+00
 89         6.6903918143e-02
 90         0.0000000000e+00
 91        -3.4956910780e-02
 92        -1.3191969831e-02
 93         0.0000000000e+00
 94         3.0015132426e-01
 95         1.8200912606e-01
 96         0.0000000000e+00
 97         1.8946861405e+00
 98         1.3815248834e-02
 99         8.0450202478e-03
100         0.0000000000e+00
101         9.0300844267e-03
102        -3.7917177105e-03
103         0.0000000000e+00
104        -2.0799160891e-01
105         0.0000000000e+00
106         1.0395319098e-01
107        -2.6361576171e-01
108         0.0000000000e+00
109        -1.3109736895e-02
110         0.0000000000e+00
111        -3.4599687869e-02
112        -1.4635686482e-02
113         0.0000000000e+00
114         0.0000000000e+00
115        -3.8695061697e-02
 Sym= A1
 Ene=         1.2935963564e+00
 Spin= Beta
 Occup=         0.0000000000e+00
  1         1.0330925197e-02
  2        -2.1466767585e-02
  3        -3.3644270676e-02
  4         4.7180474984e-01
  5        -5.3280300597e+00
  6         0.0000000000e+00
  7         0.0000000000e+00
  8         9.6740567595e-02
  9         0.0000000000e+00
 10         0.0000000000e+00
 11         1.9027472163e-01
 12         0.0000000000e+00
 13         0.0000000000e+00
 14         1.3484135034e-01
 15         0.0000000000e+00
 16         0.0000000000e+00
 17         1.1053339770e+00
 18        -8.6938710997e-04
 19         0.0000000000e+00
 20         0.0000000000e+00
 21         3.3328750881e-02
 22         0.0000000000e+00
 23         1.8135070270e-02
 24         0.0000000000e+00
 25         0.0000000000e+00
 26        -1.1689691934e-01
 27         0.0000000000e+00
 28         7.9381028283e-01
 29         0.0000000000e+00
 30         0.0000000000e+00
 31         1.6652741513e+00
 32         0.0000000000e+00
 33         2.1838431996e-02
 34         0.0000000000e+00
 35         0.0000000000e+00
 36         2.4689588429e-02
 37         0.0000000000e+00
 38         0.0000000000e+00
 39         0.0000000000e+00
 40        -1.7107748777e-01
 41         0.0000000000e+00
 42         0.0000000000e+00
 43        -1.2892776346e-01
 44         0.0000000000e+00
 45         0.0000000000e+00
 46         0.0000000000e+00
 47         5.8715679609e-03
 48         0.0000000000e+00
 49         0.0000000000e+00
 50        -8.5506138236e-03
 51         0.0000000000e+00
 52         0.0000000000e+00
 53         0.0000000000e+00
 54        -1.7360991195e-02
 55         0.0000000000e+00
 56         1.7308758427e-02
 57         1.0258726338e+00
 58         1.6730470192e+00
 59         5.1505147272e-01
 60         0.0000000000e+00
 61        -5.1527288332e-02
 62         7.8304130507e-03
 63         0.0000000000e+00
 64         9.9128167871e-02
 65         7.1767491094e-02
 66         0.0000000000e+00
 67        -6.2716829568e-01
 68         1.0306807744e+00
 69         7.9905677528e-03
 70         0.0000000000e+00
 71         8.9451027537e-03
 72        -1.9145176763e-02
 73         0.0000000000e+00
 74         1.3280813399e-01
 75         0.0000000000e+00
 76        -1.7952280824e-01
 77         2.6020312702e-01
 78         0.0000000000e+00
 79         1.8530251365e-02
 80         0.0000000000e+00
 81        -3.2546127002e-02
 82         1.8835803614e-02
 83         0.0000000000e+00
 84         0.0000000000e+00
 85        -3.3268893647e-02
 86         1.7308758427e-02
 87         1.0258726338e+00
 88         1.6730470192e+00
 89         5.1505147272e-01
 90         0.0000000000e+00
 91         5.1527288332e-02
 92         7.8304130507e-03
 93         0.0000000000e+00
 94        -9.9128167871e-02
 95         7.1767491094e-02
 96         0.0000000000e+00
 97         6.2716829568e-01
 98         1.0306807744e+00
 99         7.9905677528e-03
100         0.0000000000e+00
101        -8.9451027537e-03
102        -1.9145176763e-02
103         0.0000000000e+00
104         1.3280813399e-01
105         0.0000000000e+00
106         1.7952280824e-01
107         2.6020312702e-01
108         0.0000000000e+00
109         1.8530251365e-02
110         0.0000000000e+00
111         3.2546127002e-02
112         1.8835803614e-02
113         0.0000000000e+00
114         0.0000000000e+00
115         3.3268893647e-02
 Sym= B2
 Ene=         1.5021034534e+00
 Spin= Beta
 Occup=         0.0000000000e+00
  1         0.0000000000e+00
  2         0.0000000000e+00
  3         0.0000000000e+00
  4         0.0000000000e+00
  5         0.0000000000e+00
  6         0.0000000000e+00
  7         1.2782244446e-01
  8         0.0000000000e+00
  9         0.0000000000e+00
 10         1.3335518181e-01
 11         0.0000000000e+00
 12         0.0000000000e+00
 13         1.5645122655e-01
 14         0.0000000000e+00
 15         0.0000000000e+00
 16         1.7851079659e+00
 17         0.0000000000e+00
 18         0.0000000000e+00
 19         0.0000000000e+00
 20        -4.3589066151e-02
 21         0.0000000000e+00
 22         0.0000000000e+00
 23         0.0000000000e+00
 24         0.0000000000e+00
 25         2.1058281475e-01
 26         0.0000000000e+00
 27         0.0000000000e+00
 28         0.0000000000e+00
 29         0.0000000000e+00
 30        -1.8015079973e+00
 31         0.0000000000e+00
 32         0.0000000000e+00
 33         0.0000000000e+00
 34         0.0000000000e+00
 35        -2.2850814247e-02
 36         0.0000000000e+00
 37         0.0000000000e+00
 38         0.0000000000e+00
 39         1.3170692548e-02
 40         0.0000000000e+00
 41         0.0000000000e+00
 42         1.7811427161e-01
 43         0.0000000000e+00
 44         0.0000000000e+00
 45         0.0000000000e+00
 46        -5.1500318427e-04
 47         0.0000000000e+00
 48         0.0000000000e+00
 49        -1.4533831393e-02
 50         0.0000000000e+00
 51         0.0000000000e+00
 52         0.0000000000e+00
 53         1.6081226624e-02
 54         0.0000000000e+00
 55         0.0000000000e+00
 56        -4.9752321442e-03
 57        -1.3368156796e+00
 58        -4.7941106027e-01
 59        -8.8918993683e-01
 60         0.0000000000e+00
 61         3.0395083997e-02
 62        -2.8080277834e-02
 63         0.0000000000e+00
 64         1.9751145418e-02
 65         5.3768171698e-02
 66         0.0000000000e+00
 67         4.8184409189e-01
 68        -1.4497705075e-01
 69         2.5261909103e-02
 70         0.0000000000e+00
 71         1.1463825507e-02
 72        -1.0878970634e-02
 73         0.0000000000e+00
 74        -1.9188462993e-02
 75         0.0000000000e+00
 76        -2.3421837981e-01
 77         1.0790225009e-01
 78         0.0000000000e+00
 79        -6.4403524607e-03
 80         0.0000000000e+00
 81        -5.1460986023e-02
 82        -3.7225914896e-02
 83         0.0000000000e+00
 84         0.0000000000e+00
 85         1.9393623812e-02
 86         4.9752321442e-03
 87         1.3368156796e+00
 88         4.7941106027e-01
 89         8.8918993683e-01
 90         0.0000000000e+00
 91         3.0395083997e-02
 92         2.8080277834e-02
 93         0.0000000000e+00
 94         1.9751145418e-02
 95        -5.3768171698e-02
 96         0.0000000000e+00
 97         4.8184409189e-01
 98         1.4497705075e-01
 99        -2.5261909103e-02
100         0.0000000000e+00
101         1.1463825507e-02
102         1.0878970634e-02
103         0.0000000000e+00
104         1.9188462993e-02
105         0.0000000000e+00
106        -2.3421837981e-01
107        -1.0790225009e-01
108         0.0000000000e+00
109         6.4403524607e-03
110         0.0000000000e+00
111        -5.1460986023e-02
112         3.7225914896e-02
113         0.0000000000e+00
114         0.0000000000e+00
115         1.9393623812e-02
 Sym= B1
 Ene=         1.7212450618e+00
 Spin= Beta
 Occup=         0.0000000000e+00
  1         0.0000000000e+00
  2         0.0000000000e+00
  3         0.0000000000e+00
  4         0.0000000000e+00
  5         0.0000000000e+00
  6         1.3888247267e-02
  7         0.0000000000e+00
  8         0.0000000000e+00
  9         8.5358952689e-02
 10         0.0000000000e+00
 11         0.0000000000e+00
 12        -2.5664939525e-01
 13         0.0000000000e+00
 14         0.0000000000e+00
 15        -3.9536432209e-01
 16         0.0000000000e+00
 17         0.0000000000e+00
 18         0.0000000000e+00
 19         1.2590395416e-02
 20         0.0000000000e+00
 21         0.0000000000e+00
 22         0.0000000000e+00
 23         0.0000000000e+00
 24         8.7968774561e-04
 25         0.0000000000e+00
 26         0.0000000000e+00
 27         0.0000000000e+00
 28         0.0000000000e+00
 29         7.9325166762e-01
 30         0.0000000000e+00
 31         0.0000000000e+00
 32         0.0000000000e+00
 33         0.0000000000e+00
 34         7.7236964275e-04
 35         0.0000000000e+00
 36         0.0000000000e+00
 37         0.0000000000e+00
 38         1.2772057313e-03
 39         0.0000000000e+00
 40         0.0000000000e+00
 41         3.2999688369e-03
 42         0.0000000000e+00
 43         0.0000000000e+00
 44         0.0000000000e+00
 45         5.1719986603e-02
 46         0.0000000000e+00
 47         0.0000000000e+00
 48         8.2333457924e-03
 49         0.0000000000e+00
 50         0.0000000000e+00
 51         0.0000000000e+00
 52        -7.8569118920e-03
 53         0.0000000000e+00
 54         0.0000000000e+00
 55         0.0000000000e+00
 56         0.0000000000e+00
 57         0.0000000000e+00
 58         0.0000000000e+00
 59         0.0000000000e+00
 60         2.4289770985e-02
 61         0.0000000000e+00
 62         0.0000000000e+00
 63        -2.1927765550e-01
 64         0.0000000000e+00
 65         0.0000000000e+00
 66         4.9423021639e-01
 67         0.0000000000e+00
 68         0.0000000000e+00
 69         0.0000000000e+00
 70         7.3790851292e-02
 71         0.0000000000e+00
 72         0.0000000000e+00
 73         6.1855412617e-02
 74         0.0000000000e+00
 75        -5.2650922421e-01
 76         0.0000000000e+00
 77         0.0000000000e+00
 78        -5.3722843205e-01
 79         0.0000000000e+00
 80         6.1505375498e-04
 81         0.0000000000e+00
 82         0.0000000000e+00
 83        -7.2726754387e-03
 84        -3.1334635955e-02
 85         0.0000000000e+00
 86         0.0000000000e+00
 87         0.0000000000e+00
 88         0.0000000000e+00
 89         0.0000000000e+00
 90         2.4289770985e-02
 91         0.0000000000e+00
 92         0.0000000000e+00
 93        -2.1927765550e-01
 94         0.0000000000e+00
 95         0.0000000000e+00
 96         4.9423021639e-01
 97         0.0000000000e+00
 98         0.0000000000e+00
 99         0.0000000000e+00
100         7.3790851292e-02
101         0.0000000000e+00
102         0.0000000000e+00
103        -6.1855412617e-02
104         0.0000000000e+00
105        -5.2650922421e-01
106         0.0000000000e+00
107         0.0000000000e+00
108         5.3722843205e-01
109         0.0000000000e+00
110         6.1505375498e-04
111         0.0000000000e+00
112         0.0000000000e+00
113         7.2726754387e-03
114        -3.1334635955e-02
115         0.0000000000e+00
 Sym= A1
 Ene=         1.8199781823e+00
 Spin= Beta
 Occup=         0.0000000000e+00
  1         1.6534296637e-02
  2         3.7804902107e-02
  3         1.8524715810e-01
  4        -7.8540594392e-01
  5        -1.8918017884e+00
  6         0.0000000000e+00
  7         0.0000000000e+00
  8        -4.3331610976e-02
  9         0.0000000000e+00
 10         0.0000000000e+00
 11        -5.1854910465e-02
 12         0.0000000000e+00
 13         0.0000000000e+00
 14         6.8658434558e-02
 15         0.0000000000e+00
 16         0.0000000000e+00
 17         3.9692770916e-01
 18        -1.7447971754e-03
 19         0.0000000000e+00
 20         0.0000000000e+00
 21        -2.6501880029e-02
 22         0.0000000000e+00
 23        -2.7863750546e-02
 24         0.0000000000e+00
 25         0.0000000000e+00
 26         1.1193862211e-01
 27         0.0000000000e+00
 28         8.3412123364e-01
 29         0.0000000000e+00
 30         0.0000000000e+00
 31        -1.4342614720e-01
 32         0.0000000000e+00
 33         5.4036765433e-03
 34         0.0000000000e+00
 35         0.0000000000e+00
 36        -1.4558400660e-03
 37         0.0000000000e+00
 38         0.0000000000e+00
 39         0.0000000000e+00
 40        -9.7369622100e-02
 41         0.0000000000e+00
 42         0.0000000000e+00
 43        -9.8467838294e-02
 44         0.0000000000e+00
 45         0.0000000000e+00
 46         0.0000000000e+00
 47         8.4830420152e-03
 48         0.0000000000e+00
 49         0.0000000000e+00
 50        -1.1938591667e-02
 51         0.0000000000e+00
 52         0.0000000000e+00
 53         0.0000000000e+00
 54         1.2750687933e-03
 55         0.0000000000e+00
 56        -6.1166343675e-03
 57        -3.8912609737e-01
 58         1.5794014480e+00
 59        -5.8008229768e-02
 60         0.0000000000e+00
 61        -2.4146732630e-02
 62        -4.8996702440e-02
 63         0.0000000000e+00
 64         6.3390201390e-02
 65         3.5330567866e-01
 66         0.0000000000e+00
 67        -4.7268859847e-01
 68         4.1854493225e-01
 69         2.7011830381e-02
 70         0.0000000000e+00
 71         4.1795270944e-02
 72        -7.8608716259e-02
 73         0.0000000000e+00
 74        -7.8936841491e-02
 75         0.0000000000e+00
 76        -5.9273121727e-01
 77         6.2899597255e-01
 78         0.0000000000e+00
 79        -1.9641729666e-02
 80         0.0000000000e+00
 81        -3.4117306044e-02
 82        -3.8188537712e-02
 83         0.0000000000e+00
 84         0.0000000000e+00
 85        -1.5548065128e-02
 86        -6.1166343675e-03
 87        -3.8912609737e-01
 88         1.5794014480e+00
 89        -5.8008229768e-02
 90         0.0000000000e+00
 91         2.4146732630e-02
 92        -4.8996702440e-02
 93         0.0000000000e+00
 94        -6.3390201390e-02
 95         3.5330567866e-01
 96         0.0000000000e+00
 97         4.7268859847e-01
 98         4.1854493225e-01
 99         2.7011830381e-02
100         0.0000000000e+00
101        -4.1795270944e-02
102        -7.8608716259e-02
103         0.0000000000e+00
104        -7.8936841491e-02
105         0.0000000000e+00
106         5.9273121727e-01
107         6.2899597255e-01
108         0.0000000000e+00
109        -1.9641729666e-02
110         0.0000000000e+00
111         3.4117306044e-02
112        -3.8188537712e-02
113         0.0000000000e+00
114         0.0000000000e+00
115         1.5548065128e-02
 Sym= A2
 Ene=         1.8756849339e+00
 Spin= Beta
 Occup=         0.0000000000e+00
  1         0.0000000000e+00
  2         0.0000000000e+00
  3         0.0000000000e+00
  4         0.0000000000e+00
  5         0.0000000000e+00
  6         0.0000000000e+00
  7         0.0000000000e+00
  8         0.0000000000e+00
  9         0.0000000000e+00
 10         0.0000000000e+00
 11         0.0000000000e+00
 12         0.0000000000e+00
 13         0.0000000000e+00
 14         0.0000000000e+00
 15         0.0000000000e+00
 16         0.0000000000e+00
 17         0.0000000000e+00
 18         0.0000000000e+00
 19         0.0000000000e+00
 20         0.0000000000e+00
 21         0.0000000000e+00
 22         5.5978295254e-03
 23         0.0000000000e+00
 24         0.0000000000e+00
 25         0.0000000000e+00
 26         0.0000000000e+00
 27        -1.0156766243e-01
 28         0.0000000000e+00
 29         0.0000000000e+00
 30         0.0000000000e+00
 31         0.0000000000e+00
 32        -2.3864295277e-01
 33         0.0000000000e+00
 34         0.0000000000e+00
 35         0.0000000000e+00
 36         0.0000000000e+00
 37        -5.1490693677e-03
 38         0.0000000000e+00
 39         0.0000000000e+00
 40         0.0000000000e+00
 41         0.0000000000e+00
 42         0.0000000000e+00
 43         0.0000000000e+00
 44         1.2815029701e-01
 45         0.0000000000e+00
 46         0.0000000000e+00
 47         0.0000000000e+00
 48         0.0000000000e+00
 49         0.0000000000e+00
 50         0.0000000000e+00
 51         9.5869813736e-03
 52         0.0000000000e+00
 53         0.0000000000e+00
 54         0.0000000000e+00
 55         3.5763955697e-03
 56         0.0000000000e+00
 57         0.0000000000e+00
 58         0.0000000000e+00
 59         0.0000000000e+00
 60         9.3092879887e-02
 61         0.0000000000e+00
 62         0.0000000000e+00
 63        -7.2508428154e-01
 64         0.0000000000e+00
 65         0.0000000000e+00
 66         6.1897540547e-01
 67         0.0000000000e+00
 68         0.0000000000e+00
 69         0.0000000000e+00
 70        -6.3793945665e-02
 71         0.0000000000e+00
 72         0.0000000000e+00
 73        -2.6830671833e-02
 74         0.0000000000e+00
 75         5.3736075143e-01
 76         0.0000000000e+00
 77         0.0000000000e+00
 78         1.9074984034e-01
 79         0.0000000000e+00
 80         3.4403042840e-03
 81         0.0000000000e+00
 82         0.0000000000e+00
 83        -1.3710723902e-02
 84        -2.5814453978e-02
 85         0.0000000000e+00
 86         0.0000000000e+00
 87         0.0000000000e+00
 88         0.0000000000e+00
 89         0.0000000000e+00
 90        -9.3092879887e-02
 91         0.0000000000e+00
 92         0.0000000000e+00
 93         7.2508428154e-01
 94         0.0000000000e+00
 95         0.0000000000e+00
 96        -6.1897540547e-01
 97         0.0000000000e+00
 98         0.0000000000e+00
 99         0.0000000000e+00
100         6.3793945665e-02
101         0.0000000000e+00
102         0.0000000000e+00
103        -2.6830671833e-02
104         0.0000000000e+00
105        -5.3736075143e-01
106         0.0000000000e+00
107         0.0000000000e+00
108         1.9074984034e-01
109         0.0000000000e+00
110        -3.4403042840e-03
111         0.0000000000e+00
112         0.0000000000e+00
113        -1.3710723902e-02
114         2.5814453978e-02
115         0.0000000000e+00
 Sym= B2
 Ene=         1.9659541798e+00
 Spin= Beta
 Occup=         0.0000000000e+00
  1         0.0000000000e+00
  2         0.0000000000e+00
  3         0.0000000000e+00
  4         0.0000000000e+00
  5         0.0000000000e+00
  6         0.0000000000e+00
  7         2.3614964703e-02
  8         0.0000000000e+00
  9         0.0000000000e+00
 10         1.8626351011e-01
 11         0.0000000000e+00
 12         0.0000000000e+00
 13        -8.5151793500e-01
 14         0.0000000000e+00
 15         0.0000000000e+00
 16        -3.4413468987e-01
 17         0.0000000000e+00
 18         0.0000000000e+00
 19         0.0000000000e+00
 20        -1.1296501968e-02
 21         0.0000000000e+00
 22         0.0000000000e+00
 23         0.0000000000e+00
 24         0.0000000000e+00
 25         4.0228395525e-02
 26         0.0000000000e+00
 27         0.0000000000e+00
 28         0.0000000000e+00
 29         0.0000000000e+00
 30        -7.1243503496e-01
 31         0.0000000000e+00
 32         0.0000000000e+00
 33         0.0000000000e+00
 34         0.0000000000e+00
 35        -2.1306831343e-02
 36         0.0000000000e+00
 37         0.0000000000e+00
 38         0.0000000000e+00
 39        -3.6938826059e-03
 40         0.0000000000e+00
 41         0.0000000000e+00
 42         3.2346667929e-01
 43         0.0000000000e+00
 44         0.0000000000e+00
 45         0.0000000000e+00
 46         1.3640456919e-01
 47         0.0000000000e+00
 48         0.0000000000e+00
 49        -3.5649988138e-02
 50         0.0000000000e+00
 51         0.0000000000e+00
 52         0.0000000000e+00
 53        -1.9931210026e-02
 54         0.0000000000e+00
 55         0.0000000000e+00
 56        -9.3367210321e-03
 57        -5.0267976814e-01
 58         8.4737965613e-01
 59        -1.5447324909e-01
 60         0.0000000000e+00
 61         2.6026795419e-02
 62         5.5716386284e-04
 63         0.0000000000e+00
 64        -2.4701681255e-01
 65        -3.7077696417e-02
 66         0.0000000000e+00
 67         2.0939449994e-01
 68         6.2166319620e-01
 69        -6.8036368391e-02
 70         0.0000000000e+00
 71        -5.0404060519e-02
 72         2.3053691567e-02
 73         0.0000000000e+00
 74         8.8575507918e-01
 75         0.0000000000e+00
 76         1.9807950570e-01
 77        -1.1400890450e-01
 78         0.0000000000e+00
 79         2.7079384034e-02
 80         0.0000000000e+00
 81        -7.6687740282e-02
 82        -1.8348168693e-02
 83         0.0000000000e+00
 84         0.0000000000e+00
 85        -2.2777933565e-02
 86         9.3367210321e-03
 87         5.0267976814e-01
 88        -8.4737965613e-01
 89         1.5447324909e-01
 90         0.0000000000e+00
 91         2.6026795419e-02
 92        -5.5716386284e-04
 93         0.0000000000e+00
 94        -2.4701681255e-01
 95         3.7077696417e-02
 96         0.0000000000e+00
 97         2.0939449994e-01
 98        -6.2166319620e-01
 99         6.8036368391e-02
100         0.0000000000e+00
101        -5.0404060519e-02
102        -2.3053691567e-02
103         0.0000000000e+00
104        -8.8575507918e-01
105         0.0000000000e+00
106         1.9807950570e-01
107         1.1400890450e-01
108         0.0000000000e+00
109        -2.7079384034e-02
110         0.0000000000e+00
111        -7.6687740282e-02
112         1.8348168693e-02
113         0.0000000000e+00
114         0.0000000000e+00
115        -2.2777933565e-02
 Sym= B1
 Ene=         2.0159410040e+00
 Spin= Beta
 Occup=         0.0000000000e+00
  1         0.0000000000e+00
  2         0.0000000000e+00
  3         0.0000000000e+00
  4         0.0000000000e+00
  5         0.0000000000e+00
  6         1.3597315120e-01
  7         0.0000000000e+00
  8         0.0000000000e+00
  9         6.9800126633e-01
 10         0.0000000000e+00
 11         0.0000000000e+00
 12        -9.9828876322e-01
 13         0.0000000000e+00
 14         0.0000000000e+00
 15         7.5644231589e-02
 16         0.0000000000e+00
 17         0.0000000000e+00
 18         0.0000000000e+00
 19        -1.8505617317e-02
 20         0.0000000000e+00
 21         0.0000000000e+00
 22         0.0000000000e+00
 23         0.0000000000e+00
 24         1.1608809937e-01
 25         0.0000000000e+00
 26         0.0000000000e+00
 27         0.0000000000e+00
 28         0.0000000000e+00
 29        -2.8157515035e-01
 30         0.0000000000e+00
 31         0.0000000000e+00
 32         0.0000000000e+00
 33         0.0000000000e+00
 34         2.9933824253e-03
 35         0.0000000000e+00
 36         0.0000000000e+00
 37         0.0000000000e+00
 38        -1.1726287912e-03
 39         0.0000000000e+00
 40         0.0000000000e+00
 41        -6.6754163926e-02
 42         0.0000000000e+00
 43         0.0000000000e+00
 44         0.0000000000e+00
 45         8.9922092654e-02
 46         0.0000000000e+00
 47         0.0000000000e+00
 48        -2.3411927181e-03
 49         0.0000000000e+00
 50         0.0000000000e+00
 51         0.0000000000e+00
 52        -4.1892345336e-03
 53         0.0000000000e+00
 54         0.0000000000e+00
 55         0.0000000000e+00
 56         0.0000000000e+00
 57         0.0000000000e+00
 58         0.0000000000e+00
 59         0.0000000000e+00
 60         1.0356414136e-01
 61         0.0000000000e+00
 62         0.0000000000e+00
 63        -8.2305220862e-01
 64         0.0000000000e+00
 65         0.0000000000e+00
 66         5.9703276509e-01
 67         0.0000000000e+00
 68         0.0000000000e+00
 69         0.0000000000e+00
 70        -1.5725401329e-02
 71         0.0000000000e+00
 72         0.0000000000e+00
 73        -2.0876490835e-02
 74         0.0000000000e+00
 75         2.1105271629e-01
 76         0.0000000000e+00
 77         0.0000000000e+00
 78         7.6972019301e-02
 79         0.0000000000e+00
 80         1.1032928705e-02
 81         0.0000000000e+00
 82         0.0000000000e+00
 83        -4.5164817886e-02
 84        -2.5875783526e-02
 85         0.0000000000e+00
 86         0.0000000000e+00
 87         0.0000000000e+00
 88         0.0000000000e+00
 89         0.0000000000e+00
 90         1.0356414136e-01
 91         0.0000000000e+00
 92         0.0000000000e+00
 93        -8.2305220862e-01
 94         0.0000000000e+00
 95         0.0000000000e+00
 96         5.9703276509e-01
 97         0.0000000000e+00
 98         0.0000000000e+00
 99         0.0000000000e+00
100        -1.5725401329e-02
101         0.0000000000e+00
102         0.0000000000e+00
103         2.0876490835e-02
104         0.0000000000e+00
105         2.1105271629e-01
106         0.0000000000e+00
107         0.0000000000e+00
108        -7.6972019301e-02
109         0.0000000000e+00
110         1.1032928705e-02
111         0.0000000000e+00
112         0.0000000000e+00
113         4.5164817886e-02
114        -2.5875783526e-02
115         0.0000000000e+00
 Sym= A1
 Ene=         2.0951398033e+00
 Spin= Beta
 Occup=         0.0000000000e+00
  1         3.7188432222e-03
  2         1.9573007569e-02
  3         1.2468197884e-01
  4        -1.0231626541e+00
  5        -1.7246409988e-01
  6         0.0000000000e+00
  7         0.0000000000e+00
  8        -2.8905282894e-02
  9         0.0000000000e+00
 10         0.0000000000e+00
 11         9.7464450849e-02
 12         0.0000000000e+00
 13         0.0000000000e+00
 14        -5.3439768673e-01
 15         0.0000000000e+00
 16         0.0000000000e+00
 17        -5.6873421423e-01
 18        -2.6325805558e-02
 19         0.0000000000e+00
 20         0.0000000000e+00
 21        -1.9031115070e-02
 22         0.0000000000e+00
 23         1.1624680647e-01
 24         0.0000000000e+00
 25         0.0000000000e+00
 26         1.2086496906e-01
 27         0.0000000000e+00
 28         5.9970695163e-01
 29         0.0000000000e+00
 30         0.0000000000e+00
 31         2.3825327998e-01
 32         0.0000000000e+00
 33         1.3326792258e-02
 34         0.0000000000e+00
 35         0.0000000000e+00
 36        -9.3200518302e-03
 37         0.0000000000e+00
 38         0.0000000000e+00
 39         0.0000000000e+00
 40        -2.1405618939e-01
 41         0.0000000000e+00
 42         0.0000000000e+00
 43         2.8861418069e-02
 44         0.0000000000e+00
 45         0.0000000000e+00
 46         0.0000000000e+00
 47        -9.5101149791e-03
 48         0.0000000000e+00
 49         0.0000000000e+00
 50        -2.4723820894e-02
 51         0.0000000000e+00
 52         0.0000000000e+00
 53         0.0000000000e+00
 54        -6.5361242885e-03
 55         0.0000000000e+00
 56         3.2682169024e-03
 57        -5.4148087251e-02
 58         2.5757894822e-01
 59         6.8340663364e-02
 60         0.0000000000e+00
 61         3.4625795932e-02
 62         5.7568823257e-02
 63         0.0000000000e+00
 64        -2.6919512653e-01
 65        -5.5846663576e-01
 66         0.0000000000e+00
 67         1.4529044518e-01
 68         1.0588304514e+00
 69        -6.5969683293e-02
 70         0.0000000000e+00
 71         3.8223281694e-02
 72        -9.0298358351e-03
 73         0.0000000000e+00
 74         7.4506472724e-01
 75         0.0000000000e+00
 76        -5.1509594064e-01
 77         1.6874971872e-01
 78         0.0000000000e+00
 79        -3.9076337346e-03
 80         0.0000000000e+00
 81        -6.0484915273e-02
 82        -2.4590730661e-02
 83         0.0000000000e+00
 84         0.0000000000e+00
 85        -1.4544132054e-02
 86         3.2682169024e-03
 87        -5.4148087251e-02
 88         2.5757894822e-01
 89         6.8340663364e-02
 90         0.0000000000e+00
 91        -3.4625795932e-02
 92         5.7568823257e-02
 93         0.0000000000e+00
 94         2.6919512653e-01
 95        -5.5846663576e-01
 96         0.0000000000e+00
 97        -1.4529044518e-01
 98         1.0588304514e+00
 99        -6.5969683293e-02
100         0.0000000000e+00
101        -3.8223281694e-02
102        -9.0298358351e-03
103         0.0000000000e+00
104         7.4506472724e-01
105         0.0000000000e+00
106         5.1509594064e-01
107         1.6874971872e-01
108         0.0000000000e+00
109        -3.9076337346e-03
110         0.0000000000e+00
111         6.0484915273e-02
112        -2.4590730661e-02
113         0.0000000000e+00
114         0.0000000000e+00
115         1.4544132054e-02
 Sym= B2
 Ene=         2.1493970022e+00
 Spin= Beta
 Occup=         0.0000000000e+00
  1         0.0000000000e+00
  2         0.0000000000e+00
  3         0.0000000000e+00
  4         0.0000000000e+00
  5         0.0000000000e+00
  6         0.0000000000e+00
  7         3.7407072152e-02
  8         0.0000000000e+00
  9         0.0000000000e+00
 10        -4.5255337123e-02
 11         0.0000000000e+00
 12         0.0000000000e+00
 13         1.5210739595e-01
 14         0.0000000000e+00
 15         0.0000000000e+00
 16         1.4730650097e+00
 17         0.0000000000e+00
 18         0.0000000000e+00
 19         0.0000000000e+00
 20        -1.2690703921e-02
 21         0.0000000000e+00
 22         0.0000000000e+00
 23         0.0000000000e+00
 24         0.0000000000e+00
 25         1.3742225760e-01
 26         0.0000000000e+00
 27         0.0000000000e+00
 28         0.0000000000e+00
 29         0.0000000000e+00
 30        -1.1162224393e+00
 31         0.0000000000e+00
 32         0.0000000000e+00
 33         0.0000000000e+00
 34         0.0000000000e+00
 35        -1.1666815499e-02
 36         0.0000000000e+00
 37         0.0000000000e+00
 38         0.0000000000e+00
 39         9.5556812820e-03
 40         0.0000000000e+00
 41         0.0000000000e+00
 42        -9.9113334102e-03
 43         0.0000000000e+00
 44         0.0000000000e+00
 45         0.0000000000e+00
 46        -1.1964907722e-01
 47         0.0000000000e+00
 48         0.0000000000e+00
 49        -2.0746259525e-03
 50         0.0000000000e+00
 51         0.0000000000e+00
 52         0.0000000000e+00
 53         1.3467105991e-02
 54         0.0000000000e+00
 55         0.0000000000e+00
 56         1.8651461312e-02
 57        -5.8133843342e-01
 58        -5.4563957933e-01
 59        -1.0824558145e-02
 60         0.0000000000e+00
 61        -7.8965014806e-02
 62        -1.0236931193e-01
 63         0.0000000000e+00
 64         9.1528331602e-01
 65         7.1535338587e-01
 66         0.0000000000e+00
 67        -8.9072094981e-01
 68        -7.0966276348e-01
 69        -1.7091300761e-02
 70         0.0000000000e+00
 71        -1.1390923924e-03
 72         4.5965366280e-02
 73         0.0000000000e+00
 74         2.0612045317e-01
 75         0.0000000000e+00
 76        -1.5202204848e-02
 77        -3.4634395790e-01
 78         0.0000000000e+00
 79        -1.8824621232e-02
 80         0.0000000000e+00
 81         7.4157581510e-03
 82        -2.1679416285e-02
 83         0.0000000000e+00
 84         0.0000000000e+00
 85         3.4784879752e-02
 86        -1.8651461312e-02
 87         5.8133843342e-01
 88         5.4563957933e-01
 89         1.0824558145e-02
 90         0.0000000000e+00
 91        -7.8965014806e-02
 92         1.0236931193e-01
 93         0.0000000000e+00
 94         9.1528331602e-01
 95        -7.1535338587e-01
 96         0.0000000000e+00
 97        -8.9072094981e-01
 98         7.0966276348e-01
 99         1.7091300761e-02
100         0.0000000000e+00
101        -1.1390923924e-03
102        -4.5965366280e-02
103         0.0000000000e+00
104        -2.0612045317e-01
105         0.0000000000e+00
106        -1.5202204848e-02
107         3.4634395790e-01
108         0.0000000000e+00
109         1.8824621232e-02
110         0.0000000000e+00
111         7.4157581510e-03
112         2.1679416285e-02
113         0.0000000000e+00
114         0.0000000000e+00
115         3.4784879752e-02
 Sym= A2
 Ene=         2.1577009529e+00
 Spin= Beta
 Occup=         0.0000000000e+00
  1         0.0000000000e+00
  2         0.0000000000e+00
  3         0.0000000000e+00
  4         0.0000000000e+00
  5         0.0000000000e+00
  6         0.0000000000e+00
  7         0.0000000000e+00
  8         0.0000000000e+00
  9         0.0000000000e+00
 10         0.0000000000e+00
 11         0.0000000000e+00
 12         0.0000000000e+00
 13         0.0000000000e+00
 14         0.0000000000e+00
 15         0.0000000000e+00
 16         0.0000000000e+00
 17         0.0000000000e+00
 18         0.0000000000e+00
 19         0.0000000000e+00
 20         0.0000000000e+00
 21         0.0000000000e+00
 22         2.5662615758e-02
 23         0.0000000000e+00
 24         0.0000000000e+00
 25         0.0000000000e+00
 26         0.0000000000e+00
 27        -1.0858416124e-01
 28         0.0000000000e+00
 29         0.0000000000e+00
 30         0.0000000000e+00
 31         0.0000000000e+00
 32         3.3296500907e-02
 33         0.0000000000e+00
 34         0.0000000000e+00
 35         0.0000000000e+00
 36         0.0000000000e+00
 37        -1.5570838777e-02
 38         0.0000000000e+00
 39         0.0000000000e+00
 40         0.0000000000e+00
 41         0.0000000000e+00
 42         0.0000000000e+00
 43         0.0000000000e+00
 44         2.4393689245e-01
 45         0.0000000000e+00
 46         0.0000000000e+00
 47         0.0000000000e+00
 48         0.0000000000e+00
 49         0.0000000000e+00
 50         0.0000000000e+00
 51        -1.6852225099e-02
 52         0.0000000000e+00
 53         0.0000000000e+00
 54         0.0000000000e+00
 55         6.3741483645e-03
 56         0.0000000000e+00
 57         0.0000000000e+00
 58         0.0000000000e+00
 59         0.0000000000e+00
 60         7.7615635662e-02
 61         0.0000000000e+00
 62         0.0000000000e+00
 63        -6.3674363005e-01
 64         0.0000000000e+00
 65         0.0000000000e+00
 66         6.7132522204e-01
 67         0.0000000000e+00
 68         0.0000000000e+00
 69         0.0000000000e+00
 70         3.1247056784e-02
 71         0.0000000000e+00
 72         0.0000000000e+00
 73         7.2282065537e-02
 74         0.0000000000e+00
 75        -1.7948217196e-01
 76         0.0000000000e+00
 77         0.0000000000e+00
 78        -7.8132879774e-01
 79         0.0000000000e+00
 80         6.0209392706e-03
 81         0.0000000000e+00
 82         0.0000000000e+00
 83        -4.1587492223e-02
 84        -1.9656427888e-02
 85         0.0000000000e+00
 86         0.0000000000e+00
 87         0.0000000000e+00
 88         0.0000000000e+00
 89         0.0000000000e+00
 90        -7.7615635662e-02
 91         0.0000000000e+00
 92         0.0000000000e+00
 93         6.3674363005e-01
 94         0.0000000000e+00
 95         0.0000000000e+00
 96        -6.7132522204e-01
 97         0.0000000000e+00
 98         0.0000000000e+00
 99         0.0000000000e+00
100        -3.1247056784e-02
101         0.0000000000e+00
102         0.0000000000e+00
103         7.2282065537e-02
104         0.0000000000e+00
105         1.7948217196e-01
106         0.0000000000e+00
107         0.0000000000e+00
108        -7.8132879774e-01
109         0.0000000000e+00
110        -6.0209392706e-03
111         0.0000000000e+00
112         0.0000000000e+00
113        -4.1587492223e-02
114         1.9656427888e-02
115         0.0000000000e+00
 Sym= B1
 Ene=         2.1651642669e+00
 Spin= Beta
 Occup=         0.0000000000e+00
  1         0.0000000000e+00
  2         0.0000000000e+00
  3         0.0000000000e+00
  4         0.0000000000e+00
  5         0.0000000000e+00
  6         1.3187525514e-01
  7         0.0000000000e+00
  8         0.0000000000e+00
  9         5.4804964765e-01
 10         0.0000000000e+00
 11         0.0000000000e+00
 12         2.3097186580e-01
 13         0.0000000000e+00
 14         0.0000000000e+00
 15         1.1713548843e+00
 16         0.0000000000e+00
 17         0.0000000000e+00
 18         0.0000000000e+00
 19         1.1717198943e-02
 20         0.0000000000e+00
 21         0.0000000000e+00
 22         0.0000000000e+00
 23         0.0000000000e+00
 24        -7.2188954301e-02
 25         0.0000000000e+00
 26         0.0000000000e+00
 27         0.0000000000e+00
 28         0.0000000000e+00
 29        -7.3174608580e-01
 30         0.0000000000e+00
 31         0.0000000000e+00
 32         0.0000000000e+00
 33         0.0000000000e+00
 34        -9.9710338806e-03
 35         0.0000000000e+00
 36         0.0000000000e+00
 37         0.0000000000e+00
 38         2.1649789194e-02
 39         0.0000000000e+00
 40         0.0000000000e+00
 41         1.1938001991e-01
 42         0.0000000000e+00
 43         0.0000000000e+00
 44         0.0000000000e+00
 45        -3.1748236857e-01
 46         0.0000000000e+00
 47         0.0000000000e+00
 48         3.8526308226e-03
 49         0.0000000000e+00
 50         0.0000000000e+00
 51         0.0000000000e+00
 52         3.6929857901e-02
 53         0.0000000000e+00
 54         0.0000000000e+00
 55         0.0000000000e+00
 56         0.0000000000e+00
 57         0.0000000000e+00
 58         0.0000000000e+00
 59         0.0000000000e+00
 60        -3.1488283775e-02
 61         0.0000000000e+00
 62         0.0000000000e+00
 63         3.3308357994e-01
 64         0.0000000000e+00
 65         0.0000000000e+00
 66        -1.0716260079e+00
 67         0.0000000000e+00
 68         0.0000000000e+00
 69         0.0000000000e+00
 70         5.3929513059e-02
 71         0.0000000000e+00
 72         0.0000000000e+00
 73        -6.5513609902e-02
 74         0.0000000000e+00
 75        -6.2459334097e-01
 76         0.0000000000e+00
 77         0.0000000000e+00
 78         7.7239314927e-01
 79         0.0000000000e+00
 80        -1.2619884502e-02
 81         0.0000000000e+00
 82         0.0000000000e+00
 83         3.3737842099e-02
 84         3.8842400280e-02
 85         0.0000000000e+00
 86         0.0000000000e+00
 87         0.0000000000e+00
 88         0.0000000000e+00
 89         0.0000000000e+00
 90        -3.1488283775e-02
 91         0.0000000000e+00
 92         0.0000000000e+00
 93         3.3308357994e-01
 94         0.0000000000e+00
 95         0.0000000000e+00
 96        -1.0716260079e+00
 97         0.0000000000e+00
 98         0.0000000000e+00
 99         0.0000000000e+00
100         5.3929513059e-02
101         0.0000000000e+00
102         0.0000000000e+00
103         6.5513609902e-02
104         0.0000000000e+00
105        -6.2459334097e-01
106         0.0000000000e+00
107         0.0000000000e+00
108        -7.7239314927e-01
109         0.0000000000e+00
110        -1.2619884502e-02
111         0.0000000000e+00
112         0.0000000000e+00
113        -3.3737842099e-02
114         3.8842400280e-02
115         0.0000000000e+00
 Sym= B2
 Ene=         2.2592501817e+00
 Spin= Beta
 Occup=         0.0000000000e+00
  1         0.0000000000e+00
  2         0.0000000000e+00
  3         0.0000000000e+00
  4         0.0000000000e+00
  5         0.0000000000e+00
  6         0.0000000000e+00
  7         1.2005132258e-01
  8         0.0000000000e+00
  9         0.0000000000e+00
 10         1.7918865105e-01
 11         0.0000000000e+00
 12         0.0000000000e+00
 13        -1.9904972917e+00
 14         0.0000000000e+00
 15         0.0000000000e+00
 16        -1.5093998207e+00
 17         0.0000000000e+00
 18         0.0000000000e+00
 19         0.0000000000e+00
 20        -7.1749155853e-03
 21         0.0000000000e+00
 22         0.0000000000e+00
 23         0.0000000000e+00
 24         0.0000000000e+00
 25         3.2908119040e-01
 26         0.0000000000e+00
 27         0.0000000000e+00
 28         0.0000000000e+00
 29         0.0000000000e+00
 30        -5.0742099679e-01
 31         0.0000000000e+00
 32         0.0000000000e+00
 33         0.0000000000e+00
 34         0.0000000000e+00
 35        -3.3599534886e-02
 36         0.0000000000e+00
 37         0.0000000000e+00
 38         0.0000000000e+00
 39         1.1414866072e-02
 40         0.0000000000e+00
 41         0.0000000000e+00
 42         3.4125927156e-01
 43         0.0000000000e+00
 44         0.0000000000e+00
 45         0.0000000000e+00
 46         2.2755735111e-02
 47         0.0000000000e+00
 48         0.0000000000e+00
 49        -2.1215996701e-02
 50         0.0000000000e+00
 51         0.0000000000e+00
 52         0.0000000000e+00
 53         2.0347712585e-02
 54         0.0000000000e+00
 55         0.0000000000e+00
 56        -1.3138777826e-02
 57        -4.8758934412e-01
 58         3.0470571368e+00
 59         7.0784745536e-01
 60         0.0000000000e+00
 61        -2.3532251400e-03
 62         2.6470426845e-02
 63         0.0000000000e+00
 64         4.5209430778e-01
 65        -4.8487694590e-01
 66         0.0000000000e+00
 67        -1.8796656804e+00
 68         1.9132952199e+00
 69        -4.4272479835e-03
 70         0.0000000000e+00
 71         6.1775762197e-02
 72         5.1214491386e-02
 73         0.0000000000e+00
 74         3.7528844428e-01
 75         0.0000000000e+00
 76        -9.2766790198e-01
 77        -4.7098706819e-01
 78         0.0000000000e+00
 79        -2.1567741420e-03
 80         0.0000000000e+00
 81        -8.8750920253e-02
 82        -5.5562994313e-02
 83         0.0000000000e+00
 84         0.0000000000e+00
 85         2.8609802218e-02
 86         1.3138777826e-02
 87         4.8758934412e-01
 88        -3.0470571368e+00
 89        -7.0784745536e-01
 90         0.0000000000e+00
 91        -2.3532251400e-03
 92        -2.6470426845e-02
 93         0.0000000000e+00
 94         4.5209430778e-01
 95         4.8487694590e-01
 96         0.0000000000e+00
 97        -1.8796656804e+00
 98        -1.9132952199e+00
 99         4.4272479835e-03
100         0.0000000000e+00
101         6.1775762197e-02
102        -5.1214491386e-02
103         0.0000000000e+00
104        -3.7528844428e-01
105         0.0000000000e+00
106        -9.2766790198e-01
107         4.7098706819e-01
108         0.0000000000e+00
109         2.1567741420e-03
110         0.0000000000e+00
111        -8.8750920253e-02
112         5.5562994313e-02
113         0.0000000000e+00
114         0.0000000000e+00
115         2.8609802218e-02
 Sym= A1
 Ene=         2.2933208036e+00
 Spin= Beta
 Occup=         0.0000000000e+00
  1         5.2059306146e-02
  2         1.8883832881e-01
  3         5.8364258974e-01
  4        -3.1784565096e+00
  5        -3.9033662425e+00
  6         0.0000000000e+00
  7         0.0000000000e+00
  8        -8.6154651409e-02
  9         0.0000000000e+00
 10         0.0000000000e+00
 11        -1.3786363153e-01
 12         0.0000000000e+00
 13         0.0000000000e+00
 14         1.6349484550e+00
 15         0.0000000000e+00
 16         0.0000000000e+00
 17         7.4967978929e-01
 18         1.1682168792e-02
 19         0.0000000000e+00
 20         0.0000000000e+00
 21        -7.2226573276e-03
 22         0.0000000000e+00
 23        -2.7002682312e-02
 24         0.0000000000e+00
 25         0.0000000000e+00
 26         2.6790751375e-01
 27         0.0000000000e+00
 28        -3.5122805007e-01
 29         0.0000000000e+00
 30         0.0000000000e+00
 31        -5.5898404805e-01
 32         0.0000000000e+00
 33        -2.8928037399e-02
 34         0.0000000000e+00
 35         0.0000000000e+00
 36        -3.5643463643e-02
 37         0.0000000000e+00
 38         0.0000000000e+00
 39         0.0000000000e+00
 40         2.1285460899e-01
 41         0.0000000000e+00
 42         0.0000000000e+00
 43         1.5208069467e-01
 44         0.0000000000e+00
 45         0.0000000000e+00
 46         0.0000000000e+00
 47        -9.3683071850e-03
 48         0.0000000000e+00
 49         0.0000000000e+00
 50        -4.8658030155e-03
 51         0.0000000000e+00
 52         0.0000000000e+00
 53         0.0000000000e+00
 54         2.5908210150e-02
 55         0.0000000000e+00
 56        -2.4688028313e-02
 57        -4.5244315404e-01
 58         2.8269592094e+00
 59         2.5784025184e-01
 60         0.0000000000e+00
 61        -1.2394207464e-02
 62         3.7670867968e-03
 63         0.0000000000e+00
 64         5.0057313554e-01
 65        -3.5251502414e-01
 66         0.0000000000e+00
 67        -2.1339497614e+00
 68         1.1533890936e+00
 69         1.4988094287e-02
 70         0.0000000000e+00
 71         7.7335475204e-02
 72         4.5236495418e-02
 73         0.0000000000e+00
 74        -3.3311175879e-01
 75         0.0000000000e+00
 76        -8.5583001870e-01
 77        -7.2436532886e-01
 78         0.0000000000e+00
 79        -4.6452019100e-02
 80         0.0000000000e+00
 81         1.5187450901e-03
 82        -8.2808838926e-02
 83         0.0000000000e+00
 84         0.0000000000e+00
 85         4.5654876127e-02
 86        -2.4688028313e-02
 87        -4.5244315404e-01
 88         2.8269592094e+00
 89         2.5784025184e-01
 90         0.0000000000e+00
 91         1.2394207464e-02
 92         3.7670867968e-03
 93         0.0000000000e+00
 94        -5.0057313554e-01
 95        -3.5251502414e-01
 96         0.0000000000e+00
 97         2.1339497614e+00
 98         1.1533890936e+00
 99         1.4988094287e-02
100         0.0000000000e+00
101        -7.7335475204e-02
102         4.5236495418e-02
103         0.0000000000e+00
104        -3.3311175879e-01
105         0.0000000000e+00
106         8.5583001870e-01
107        -7.2436532886e-01
108         0.0000000000e+00
109        -4.6452019100e-02
110         0.0000000000e+00
111        -1.5187450901e-03
112        -8.2808838926e-02
113         0.0000000000e+00
114         0.0000000000e+00
115        -4.5654876127e-02
 Sym= A2
 Ene=         2.4450576660e+00
 Spin= Beta
 Occup=         0.0000000000e+00
  1         0.0000000000e+00
  2         0.0000000000e+00
  3         0.0000000000e+00
  4         0.0000000000e+00
  5         0.0000000000e+00
  6         0.0000000000e+00
  7         0.0000000000e+00
  8         0.0000000000e+00
  9         0.0000000000e+00
 10         0.0000000000e+00
 11         0.0000000000e+00
 12         0.0000000000e+00
 13         0.0000000000e+00
 14         0.0000000000e+00
 15         0.0000000000e+00
 16         0.0000000000e+00
 17         0.0000000000e+00
 18         0.0000000000e+00
 19         0.0000000000e+00
 20         0.0000000000e+00
 21         0.0000000000e+00
 22         1.1711266050e-02
 23         0.0000000000e+00
 24         0.0000000000e+00
 25         0.0000000000e+00
 26         0.0000000000e+00
 27         9.0020490505e-02
 28         0.0000000000e+00
 29         0.0000000000e+00
 30         0.0000000000e+00
 31         0.0000000000e+00
 32        -2.1236525477e+00
 33         0.0000000000e+00
 34         0.0000000000e+00
 35         0.0000000000e+00
 36         0.0000000000e+00
 37        -1.6940791299e-02
 38         0.0000000000e+00
 39         0.0000000000e+00
 40         0.0000000000e+00
 41         0.0000000000e+00
 42         0.0000000000e+00
 43         0.0000000000e+00
 44         3.0152237398e-01
 45         0.0000000000e+00
 46         0.0000000000e+00
 47         0.0000000000e+00
 48         0.0000000000e+00
 49         0.0000000000e+00
 50         0.0000000000e+00
 51        -3.6982108967e-02
 52         0.0000000000e+00
 53         0.0000000000e+00
 54         0.0000000000e+00
 55         5.5489373770e-02
 56         0.0000000000e+00
 57         0.0000000000e+00
 58         0.0000000000e+00
 59         0.0000000000e+00
 60        -8.0722761490e-02
 61         0.0000000000e+00
 62         0.0000000000e+00
 63         6.3959388782e-01
 64         0.0000000000e+00
 65         0.0000000000e+00
 66         8.9057934795e-01
 67         0.0000000000e+00
 68         0.0000000000e+00
 69         0.0000000000e+00
 70        -7.8349852675e-02
 71         0.0000000000e+00
 72         0.0000000000e+00
 73         5.3498964671e-02
 74         0.0000000000e+00
 75         1.0853502961e+00
 76         0.0000000000e+00
 77         0.0000000000e+00
 78        -9.7059994170e-01
 79         0.0000000000e+00
 80         5.5736171782e-03
 81         0.0000000000e+00
 82         0.0000000000e+00
 83        -7.6935194751e-02
 84        -4.7912447873e-02
 85         0.0000000000e+00
 86         0.0000000000e+00
 87         0.0000000000e+00
 88         0.0000000000e+00
 89         0.0000000000e+00
 90         8.0722761490e-02
 91         0.0000000000e+00
 92         0.0000000000e+00
 93        -6.3959388782e-01
 94         0.0000000000e+00
 95         0.0000000000e+00
 96        -8.9057934795e-01
 97         0.0000000000e+00
 98         0.0000000000e+00
 99         0.0000000000e+00
100         7.8349852675e-02
101         0.0000000000e+00
102         0.0000000000e+00
103         5.3498964671e-02
104         0.0000000000e+00
105        -1.0853502961e+00
106         0.0000000000e+00
107         0.0000000000e+00
108        -9.7059994170e-01
109         0.0000000000e+00
110        -5.5736171782e-03
111         0.0000000000e+00
112         0.0000000000e+00
113        -7.6935194751e-02
114         4.7912447873e-02
115         0.0000000000e+00
 Sym= A1
 Ene=         2.4643434011e+00
 Spin= Beta
 Occup=         0.0000000000e+00
  1         3.4842468330e-03
  2         1.0876547739e-01
  3        -1.6702957497e-01
  4         1.4713446503e+00
  5         8.3361848503e+00
  6         0.0000000000e+00
  7         0.0000000000e+00
  8         1.4490189274e-01
  9         0.0000000000e+00
 10         0.0000000000e+00
 11         8.5888214763e-01
 12         0.0000000000e+00
 13         0.0000000000e+00
 14        -2.3682744541e+00
 15         0.0000000000e+00
 16         0.0000000000e+00
 17        -1.1444675263e+00
 18        -6.1283523222e-03
 19         0.0000000000e+00
 20         0.0000000000e+00
 21         1.7921122676e-02
 22         0.0000000000e+00
 23         1.2756084837e-01
 24         0.0000000000e+00
 25         0.0000000000e+00
 26        -1.2226893768e-01
 27         0.0000000000e+00
 28        -1.3928397416e+00
 29         0.0000000000e+00
 30         0.0000000000e+00
 31        -2.2751236591e+00
 32         0.0000000000e+00
 33        -1.3433163871e-02
 34         0.0000000000e+00
 35         0.0000000000e+00
 36        -1.6898427511e-03
 37         0.0000000000e+00
 38         0.0000000000e+00
 39         0.0000000000e+00
 40         2.3909924336e-01
 41         0.0000000000e+00
 42         0.0000000000e+00
 43         2.3689243887e-01
 44         0.0000000000e+00
 45         0.0000000000e+00
 46         0.0000000000e+00
 47        -1.7676919580e-02
 48         0.0000000000e+00
 49         0.0000000000e+00
 50        -4.4291259890e-03
 51         0.0000000000e+00
 52         0.0000000000e+00
 53         0.0000000000e+00
 54         3.5709174966e-02
 55         0.0000000000e+00
 56         3.6417054547e-02
 57        -8.7266422732e-01
 58        -4.4545419332e+00
 59        -2.5081011506e-01
 60         0.0000000000e+00
 61         3.2670461142e-02
 62         1.0082448431e-01
 63         0.0000000000e+00
 64         1.5737307518e-01
 65        -1.0917730278e+00
 66         0.0000000000e+00
 67         1.3685727495e+00
 68        -1.5268674119e+00
 69         6.4669300697e-02
 70         0.0000000000e+00
 71         3.9120632180e-02
 72         3.6808294924e-02
 73         0.0000000000e+00
 74        -8.1678432277e-01
 75         0.0000000000e+00
 76         4.3197049915e-01
 77        -6.8323561803e-02
 78         0.0000000000e+00
 79         3.5428407046e-02
 80         0.0000000000e+00
 81         3.6343407050e-02
 82         3.4947869295e-02
 83         0.0000000000e+00
 84         0.0000000000e+00
 85         1.3327795512e-02
 86         3.6417054547e-02
 87        -8.7266422732e-01
 88        -4.4545419332e+00
 89        -2.5081011506e-01
 90         0.0000000000e+00
 91        -3.2670461142e-02
 92         1.0082448431e-01
 93         0.0000000000e+00
 94        -1.5737307518e-01
 95        -1.0917730278e+00
 96         0.0000000000e+00
 97        -1.3685727495e+00
 98        -1.5268674119e+00
 99         6.4669300697e-02
100         0.0000000000e+00
101        -3.9120632180e-02
102         3.6808294924e-02
103         0.0000000000e+00
104        -8.1678432277e-01
105         0.0000000000e+00
106        -4.3197049915e-01
107        -6.8323561803e-02
108         0.0000000000e+00
109         3.5428407046e-02
110         0.0000000000e+00
111        -3.6343407050e-02
112         3.4947869295e-02
113         0.0000000000e+00
114         0.0000000000e+00
115        -1.3327795512e-02
 Sym= B1
 Ene=         2.6127196433e+00
 Spin= Beta
 Occup=         0.0000000000e+00
  1         0.0000000000e+00
  2         0.0000000000e+00
  3         0.0000000000e+00
  4         0.0000000000e+00
  5         0.0000000000e+00
  6         7.2551247290e-02
  7         0.0000000000e+00
  8         0.0000000000e+00
  9         7.8694533521e-01
 10         0.0000000000e+00
 11         0.0000000000e+00
 12        -2.5274704369e+00
 13         0.0000000000e+00
 14         0.0000000000e+00
 15        -1.1974826094e-02
 16         0.0000000000e+00
 17         0.0000000000e+00
 18         0.0000000000e+00
 19        -7.0125610379e-03
 20         0.0000000000e+00
 21         0.0000000000e+00
 22         0.0000000000e+00
 23         0.0000000000e+00
 24        -1.0470635053e-01
 25         0.0000000000e+00
 26         0.0000000000e+00
 27         0.0000000000e+00
 28         0.0000000000e+00
 29         1.1183816678e+00
 30         0.0000000000e+00
 31         0.0000000000e+00
 32         0.0000000000e+00
 33         0.0000000000e+00
 34        -1.8546907485e-02
 35         0.0000000000e+00
 36         0.0000000000e+00
 37         0.0000000000e+00
 38         1.2123037799e-02
 39         0.0000000000e+00
 40         0.0000000000e+00
 41         1.7402805390e-01
 42         0.0000000000e+00
 43         0.0000000000e+00
 44         0.0000000000e+00
 45        -2.5282325961e-02
 46         0.0000000000e+00
 47         0.0000000000e+00
 48        -8.0704591119e-03
 49         0.0000000000e+00
 50         0.0000000000e+00
 51         0.0000000000e+00
 52        -5.9039797152e-02
 53         0.0000000000e+00
 54         0.0000000000e+00
 55         0.0000000000e+00
 56         0.0000000000e+00
 57         0.0000000000e+00
 58         0.0000000000e+00
 59         0.0000000000e+00
 60        -7.2197688586e-02
 61         0.0000000000e+00
 62         0.0000000000e+00
 63         5.6118121937e-01
 64         0.0000000000e+00
 65         0.0000000000e+00
 66         5.4639330987e-01
 67         0.0000000000e+00
 68         0.0000000000e+00
 69         0.0000000000e+00
 70        -3.3889798728e-02
 71         0.0000000000e+00
 72         0.0000000000e+00
 73         6.2364720499e-02
 74         0.0000000000e+00
 75         5.4242245366e-01
 76         0.0000000000e+00
 77         0.0000000000e+00
 78        -9.1600194053e-01
 79         0.0000000000e+00
 80         2.3849568173e-02
 81         0.0000000000e+00
 82         0.0000000000e+00
 83        -3.7535657598e-02
 84        -6.9347897675e-02
 85         0.0000000000e+00
 86         0.0000000000e+00
 87         0.0000000000e+00
 88         0.0000000000e+00
 89         0.0000000000e+00
 90        -7.2197688586e-02
 91         0.0000000000e+00
 92         0.0000000000e+00
 93         5.6118121937e-01
 94         0.0000000000e+00
 95         0.0000000000e+00
 96         5.4639330987e-01
 97         0.0000000000e+00
 98         0.0000000000e+00
 99         0.0000000000e+00
100        -3.3889798728e-02
101         0.0000000000e+00
102         0.0000000000e+00
103        -6.2364720499e-02
104         0.0000000000e+00
105         5.4242245366e-01
106         0.0000000000e+00
107         0.0000000000e+00
108         9.1600194053e-01
109         0.0000000000e+00
110         2.3849568173e-02
111         0.0000000000e+00
112         0.0000000000e+00
113         3.7535657598e-02
114        -6.9347897675e-02
115         0.0000000000e+00
 Sym= B2
 Ene=         2.6464574727e+00
 Spin= Beta
 Occup=         0.0000000000e+00
  1         0.0000000000e+00
  2         0.0000000000e+00
  3         0.0000000000e+00
  4         0.0000000000e+00
  5         0.0000000000e+00
  6         0.0000000000e+00
  7         1.0931209348e-01
  8         0.0000000000e+00
  9         0.0000000000e+00
 10         5.5888776467e-01
 11         0.0000000000e+00
 12         0.0000000000e+00
 13        -2.0421178920e+00
 14         0.0000000000e+00
 15         0.0000000000e+00
 16        -1.0326802989e+00
 17         0.0000000000e+00
 18         0.0000000000e+00
 19         0.0000000000e+00
 20        -3.4124284770e-02
 21         0.0000000000e+00
 22         0.0000000000e+00
 23         0.0000000000e+00
 24         0.0000000000e+00
 25         1.4613173995e-01
 26         0.0000000000e+00
 27         0.0000000000e+00
 28         0.0000000000e+00
 29         0.0000000000e+00
 30         1.4475004996e+00
 31         0.0000000000e+00
 32         0.0000000000e+00
 33         0.0000000000e+00
 34         0.0000000000e+00
 35         1.6389258054e-02
 36         0.0000000000e+00
 37         0.0000000000e+00
 38         0.0000000000e+00
 39         2.4852885858e-02
 40         0.0000000000e+00
 41         0.0000000000e+00
 42        -3.8517729198e-01
 43         0.0000000000e+00
 44         0.0000000000e+00
 45         0.0000000000e+00
 46        -1.9786083172e-01
 47         0.0000000000e+00
 48         0.0000000000e+00
 49         3.9589989509e-02
 50         0.0000000000e+00
 51         0.0000000000e+00
 52         0.0000000000e+00
 53        -1.5139996770e-02
 54         0.0000000000e+00
 55         0.0000000000e+00
 56        -2.7611051108e-02
 57         2.7403480917e-01
 58         3.3109162491e+00
 59         2.4400034426e-01
 60         0.0000000000e+00
 61         2.2985562856e-02
 62        -1.2309244721e-03
 63         0.0000000000e+00
 64        -4.2284856876e-01
 65         1.1557247846e-01
 66         0.0000000000e+00
 67        -2.0580000847e+00
 68         2.8060547635e-01
 69         5.4150178423e-02
 70         0.0000000000e+00
 71        -6.6894891511e-02
 72         4.2786941819e-02
 73         0.0000000000e+00
 74        -8.9257344824e-01
 75         0.0000000000e+00
 76         2.5946449558e-01
 77        -9.7646834843e-01
 78         0.0000000000e+00
 79        -5.9717444405e-02
 80         0.0000000000e+00
 81         3.7770842595e-02
 82        -5.9173496166e-02
 83         0.0000000000e+00
 84         0.0000000000e+00
 85         2.4532157412e-02
 86         2.7611051108e-02
 87        -2.7403480917e-01
 88        -3.3109162491e+00
 89        -2.4400034426e-01
 90         0.0000000000e+00
 91         2.2985562856e-02
 92         1.2309244721e-03
 93         0.0000000000e+00
 94        -4.2284856876e-01
 95        -1.1557247846e-01
 96         0.0000000000e+00
 97        -2.0580000847e+00
 98        -2.8060547635e-01
 99        -5.4150178423e-02
100         0.0000000000e+00
101        -6.6894891511e-02
102        -4.2786941819e-02
103         0.0000000000e+00
104         8.9257344824e-01
105         0.0000000000e+00
106         2.5946449558e-01
107         9.7646834843e-01
108         0.0000000000e+00
109         5.9717444405e-02
110         0.0000000000e+00
111         3.7770842595e-02
112         5.9173496166e-02
113         0.0000000000e+00
114         0.0000000000e+00
115         2.4532157412e-02
 Sym= B2
 Ene=         2.8604284694e+00
 Spin= Beta
 Occup=         0.0000000000e+00
  1         0.0000000000e+00
  2         0.0000000000e+00
  3         0.0000000000e+00
  4         0.0000000000e+00
  5         0.0000000000e+00
  6         0.0000000000e+00
  7         5.3013143920e-02
  8         0.0000000000e+00
  9         0.0000000000e+00
 10        -1.0457512683e-01
 11         0.0000000000e+00
 12         0.0000000000e+00
 13         6.4582723254e+00
 14         0.0000000000e+00
 15         0.0000000000e+00
 16         2.9697362992e+00
 17         0.0000000000e+00
 18         0.0000000000e+00
 19         0.0000000000e+00
 20         8.9136119984e-02
 21         0.0000000000e+00
 22         0.0000000000e+00
 23         0.0000000000e+00
 24         0.0000000000e+00
 25        -2.3384007018e-01
 26         0.0000000000e+00
 27         0.0000000000e+00
 28         0.0000000000e+00
 29         0.0000000000e+00
 30        -2.5763049121e+00
 31         0.0000000000e+00
 32         0.0000000000e+00
 33         0.0000000000e+00
 34         0.0000000000e+00
 35        -1.2314617094e-02
 36         0.0000000000e+00
 37         0.0000000000e+00
 38         0.0000000000e+00
 39         1.0341382751e-02
 40         0.0000000000e+00
 41         0.0000000000e+00
 42         3.5123648923e-01
 43         0.0000000000e+00
 44         0.0000000000e+00
 45         0.0000000000e+00
 46        -4.4098648863e-01
 47         0.0000000000e+00
 48         0.0000000000e+00
 49         1.4339216167e-02
 50         0.0000000000e+00
 51         0.0000000000e+00
 52         0.0000000000e+00
 53         5.5556960607e-02
 54         0.0000000000e+00
 55         0.0000000000e+00
 56         3.3712132416e-02
 57        -1.3312431584e+00
 58        -6.9122208663e+00
 59        -2.2563365438e-01
 60         0.0000000000e+00
 61        -1.4395919059e-01
 62         1.0935291768e-01
 63         0.0000000000e+00
 64         1.8698682007e+00
 65        -1.2712241686e+00
 66         0.0000000000e+00
 67         2.5793009795e+00
 68        -1.8964727280e+00
 69         2.1193728941e-02
 70         0.0000000000e+00
 71        -6.4700918495e-03
 72        -5.1675760371e-05
 73         0.0000000000e+00
 74        -1.1071412593e-01
 75         0.0000000000e+00
 76         1.3941352535e+00
 77         1.0364725537e+00
 78         0.0000000000e+00
 79         3.9770634667e-02
 80         0.0000000000e+00
 81         2.2802234667e-02
 82         6.7687339416e-02
 83         0.0000000000e+00
 84         0.0000000000e+00
 85        -4.2518882801e-02
 86        -3.3712132416e-02
 87         1.3312431584e+00
 88         6.9122208663e+00
 89         2.2563365438e-01
 90         0.0000000000e+00
 91        -1.4395919059e-01
 92        -1.0935291768e-01
 93         0.0000000000e+00
 94         1.8698682007e+00
 95         1.2712241686e+00
 96         0.0000000000e+00
 97         2.5793009795e+00
 98         1.8964727280e+00
 99        -2.1193728941e-02
100         0.0000000000e+00
101        -6.4700918495e-03
102         5.1675760371e-05
103         0.0000000000e+00
104         1.1071412593e-01
105         0.0000000000e+00
106         1.3941352535e+00
107        -1.0364725537e+00
108         0.0000000000e+00
109        -3.9770634667e-02
110         0.0000000000e+00
111         2.2802234667e-02
112        -6.7687339416e-02
113         0.0000000000e+00
114         0.0000000000e+00
115        -4.2518882801e-02
 Sym= A1
 Ene=         2.9103314034e+00
 Spin= Beta
 Occup=         0.0000000000e+00
  1         3.2326895663e-02
  2        -5.9082447572e-02
  3         5.4382059944e-01
  4        -4.1632590419e+00
  5        -4.2201870784e+00
  6         0.0000000000e+00
  7         0.0000000000e+00
  8         8.7494509926e-02
  9         0.0000000000e+00
 10         0.0000000000e+00
 11         5.5257449041e-01
 12         0.0000000000e+00
 13         0.0000000000e+00
 14         9.8348255292e-01
 15         0.0000000000e+00
 16         0.0000000000e+00
 17         7.9585206004e-01
 18        -3.1784363931e-03
 19         0.0000000000e+00
 20         0.0000000000e+00
 21        -3.9710759862e-02
 22         0.0000000000e+00
 23        -1.0954556464e-01
 24         0.0000000000e+00
 25         0.0000000000e+00
 26         4.1219040629e-02
 27         0.0000000000e+00
 28         1.0181523541e+00
 29         0.0000000000e+00
 30         0.0000000000e+00
 31         1.6028532700e+00
 32         0.0000000000e+00
 33        -1.2486288139e-02
 34         0.0000000000e+00
 35         0.0000000000e+00
 36         4.6956521843e-02
 37         0.0000000000e+00
 38         0.0000000000e+00
 39         0.0000000000e+00
 40        -3.6808168410e-02
 41         0.0000000000e+00
 42         0.0000000000e+00
 43        -8.0203601059e-01
 44         0.0000000000e+00
 45         0.0000000000e+00
 46         0.0000000000e+00
 47         6.3716267829e-03
 48         0.0000000000e+00
 49         0.0000000000e+00
 50        -8.3183343952e-04
 51         0.0000000000e+00
 52         0.0000000000e+00
 53         0.0000000000e+00
 54        -2.6141931531e-02
 55         0.0000000000e+00
 56        -2.5445091557e-02
 57         8.0832735155e-01
 58         3.2167026639e+00
 59         2.0801966906e-02
 60         0.0000000000e+00
 61         2.9633699562e-02
 62        -9.5864084998e-02
 63         0.0000000000e+00
 64        -7.0081288054e-01
 65         1.2003942017e+00
 66         0.0000000000e+00
 67        -9.7554259682e-01
 68         1.1396648439e+00
 69        -2.1854074745e-02
 70         0.0000000000e+00
 71         1.4963109076e-02
 72         1.4342145351e-02
 73         0.0000000000e+00
 74         5.5015267025e-01
 75         0.0000000000e+00
 76        -1.0263935514e+00
 77        -5.1938175132e-01
 78         0.0000000000e+00
 79         4.2967275025e-03
 80         0.0000000000e+00
 81        -5.2626463182e-02
 82        -4.5621377269e-02
 83         0.0000000000e+00
 84         0.0000000000e+00
 85        -3.2213786090e-02
 86        -2.5445091557e-02
 87         8.0832735155e-01
 88         3.2167026639e+00
 89         2.0801966906e-02
 90         0.0000000000e+00
 91        -2.9633699562e-02
 92        -9.5864084998e-02
 93         0.0000000000e+00
 94         7.0081288054e-01
 95         1.2003942017e+00
 96         0.0000000000e+00
 97         9.7554259682e-01
 98         1.1396648439e+00
 99        -2.1854074745e-02
100         0.0000000000e+00
101        -1.4963109076e-02
102         1.4342145351e-02
103         0.0000000000e+00
104         5.5015267025e-01
105         0.0000000000e+00
106         1.0263935514e+00
107        -5.1938175132e-01
108         0.0000000000e+00
109         4.2967275025e-03
110         0.0000000000e+00
111         5.2626463182e-02
112        -4.5621377269e-02
113         0.0000000000e+00
114         0.0000000000e+00
115         3.2213786090e-02
 Sym= A1
 Ene=         2.9672127476e+00
 Spin= Beta
 Occup=         0.0000000000e+00
  1         4.3422793651e-02
  2         2.7744612137e-01
  3        -2.6843804349e-01
  4         4.2716876480e+00
  5         9.1784179538e+00
  6         0.0000000000e+00
  7         0.0000000000e+00
  8         2.7927985639e-02
  9         0.0000000000e+00
 10         0.0000000000e+00
 11         6.5127293696e-01
 12         0.0000000000e+00
 13         0.0000000000e+00
 14        -5.3585896488e+00
 15         0.0000000000e+00
 16         0.0000000000e+00
 17        -2.2562185540e+00
 18        -6.4877600098e-03
 19         0.0000000000e+00
 20         0.0000000000e+00
 21         5.1054563147e-02
 22         0.0000000000e+00
 23        -8.3837369348e-02
 24         0.0000000000e+00
 25         0.0000000000e+00
 26        -1.8439522221e-01
 27         0.0000000000e+00
 28         1.3494147033e+00
 29         0.0000000000e+00
 30         0.0000000000e+00
 31        -7.7644235979e-01
 32         0.0000000000e+00
 33        -2.1869406964e-02
 34         0.0000000000e+00
 35         0.0000000000e+00
 36         7.4648670788e-04
 37         0.0000000000e+00
 38         0.0000000000e+00
 39         0.0000000000e+00
 40         4.6661364110e-01
 41         0.0000000000e+00
 42         0.0000000000e+00
 43         4.5847880914e-01
 44         0.0000000000e+00
 45         0.0000000000e+00
 46         0.0000000000e+00
 47        -4.6677762522e-02
 48         0.0000000000e+00
 49         0.0000000000e+00
 50        -7.3394773515e-02
 51         0.0000000000e+00
 52         0.0000000000e+00
 53         0.0000000000e+00
 54         1.6321615506e-02
 55         0.0000000000e+00
 56         3.5617517304e-02
 57        -1.1664131097e+00
 58        -5.8515478257e+00
 59        -1.3199508324e-01
 60         0.0000000000e+00
 61        -1.6306247565e-01
 62         2.6974941462e-02
 63         0.0000000000e+00
 64         1.8796121074e+00
 65        -6.6614814247e-01
 66         0.0000000000e+00
 67         2.2849227666e+00
 68        -8.6293970221e-01
 69        -5.3463799769e-02
 70         0.0000000000e+00
 71         3.3450949642e-02
 72         1.1820757384e-02
 73         0.0000000000e+00
 74         7.7696550263e-01
 75         0.0000000000e+00
 76         8.3660974454e-01
 77         8.8271431825e-01
 78         0.0000000000e+00
 79         3.6859799883e-02
 80         0.0000000000e+00
 81        -1.6358052987e-02
 82         3.3733309103e-02
 83         0.0000000000e+00
 84         0.0000000000e+00
 85        -7.0775848707e-02
 86         3.5617517304e-02
 87        -1.1664131097e+00
 88        -5.8515478257e+00
 89        -1.3199508324e-01
 90         0.0000000000e+00
 91         1.6306247565e-01
 92         2.6974941462e-02
 93         0.0000000000e+00
 94        -1.8796121074e+00
 95        -6.6614814247e-01
 96         0.0000000000e+00
 97        -2.2849227666e+00
 98        -8.6293970221e-01
 99        -5.3463799769e-02
100         0.0000000000e+00
101        -3.3450949642e-02
102         1.1820757384e-02
103         0.0000000000e+00
104         7.7696550263e-01
105         0.0000000000e+00
106        -8.3660974454e-01
107         8.8271431825e-01
108         0.0000000000e+00
109         3.6859799883e-02
110         0.0000000000e+00
111         1.6358052987e-02
112         3.3733309103e-02
113         0.0000000000e+00
114         0.0000000000e+00
115         7.0775848707e-02
 Sym= B2
 Ene=         3.1187342972e+00
 Spin= Beta
 Occup=         0.0000000000e+00
  1         0.0000000000e+00
  2         0.0000000000e+00
  3         0.0000000000e+00
  4         0.0000000000e+00
  5         0.0000000000e+00
  6         0.0000000000e+00
  7         8.7781805014e-02
  8         0.0000000000e+00
  9         0.0000000000e+00
 10         9.0394936154e-01
 11         0.0000000000e+00
 12         0.0000000000e+00
 13        -3.7963507264e+00
 14         0.0000000000e+00
 15         0.0000000000e+00
 16        -1.0843521213e+00
 17         0.0000000000e+00
 18         0.0000000000e+00
 19         0.0000000000e+00
 20        -1.8845657951e-02
 21         0.0000000000e+00
 22         0.0000000000e+00
 23         0.0000000000e+00
 24         0.0000000000e+00
 25         5.5317443053e-02
 26         0.0000000000e+00
 27         0.0000000000e+00
 28         0.0000000000e+00
 29         0.0000000000e+00
 30         1.3911555332e+00
 31         0.0000000000e+00
 32         0.0000000000e+00
 33         0.0000000000e+00
 34         0.0000000000e+00
 35        -2.4949649055e-02
 36         0.0000000000e+00
 37         0.0000000000e+00
 38         0.0000000000e+00
 39         4.7522120738e-02
 40         0.0000000000e+00
 41         0.0000000000e+00
 42         2.4122161244e-01
 43         0.0000000000e+00
 44         0.0000000000e+00
 45         0.0000000000e+00
 46        -4.1492907581e-01
 47         0.0000000000e+00
 48         0.0000000000e+00
 49        -3.4760108613e-02
 50         0.0000000000e+00
 51         0.0000000000e+00
 52         0.0000000000e+00
 53        -4.3278483729e-02
 54         0.0000000000e+00
 55         0.0000000000e+00
 56        -2.7427767092e-03
 57         1.0119562270e+00
 58         2.1537621198e+00
 59        -7.3774768535e-02
 60         0.0000000000e+00
 61         6.6846309058e-02
 62        -5.8952968669e-02
 63         0.0000000000e+00
 64        -7.3552547419e-01
 65         6.4282957045e-01
 66         0.0000000000e+00
 67        -2.9461222316e-01
 68         7.7827278479e-01
 69        -7.4567486256e-03
 70         0.0000000000e+00
 71        -2.3325865343e-02
 72        -8.0904592482e-02
 73         0.0000000000e+00
 74         2.3954787009e-01
 75         0.0000000000e+00
 76        -4.4002971092e-01
 77         5.1882502990e-01
 78         0.0000000000e+00
 79         1.7581741311e-02
 80         0.0000000000e+00
 81        -4.2454842684e-02
 82        -4.6544703720e-02
 83         0.0000000000e+00
 84         0.0000000000e+00
 85         2.1957564635e-02
 86         2.7427767092e-03
 87        -1.0119562270e+00
 88        -2.1537621198e+00
 89         7.3774768535e-02
 90         0.0000000000e+00
 91         6.6846309058e-02
 92         5.8952968669e-02
 93         0.0000000000e+00
 94        -7.3552547419e-01
 95        -6.4282957045e-01
 96         0.0000000000e+00
 97        -2.9461222316e-01
 98        -7.7827278479e-01
 99         7.4567486256e-03
100         0.0000000000e+00
101        -2.3325865343e-02
102         8.0904592482e-02
103         0.0000000000e+00
104        -2.3954787009e-01
105         0.0000000000e+00
106        -4.4002971092e-01
107        -5.1882502990e-01
108         0.0000000000e+00
109        -1.7581741311e-02
110         0.0000000000e+00
111        -4.2454842684e-02
112         4.6544703720e-02
113         0.0000000000e+00
114         0.0000000000e+00
115         2.1957564635e-02
 Sym= A1
 Ene=         3.4120011883e+00
 Spin= Beta
 Occup=         0.0000000000e+00
  1         3.5307764949e-01
  2         7.4802132643e-01
  3         2.3787744228e+00
  4        -5.9527581303e+00
  5        -3.4042605832e+00
  6         0.0000000000e+00
  7         0.0000000000e+00
  8         4.1577540816e-03
  9         0.0000000000e+00
 10         0.0000000000e+00
 11         2.4473446654e-01
 12         0.0000000000e+00
 13         0.0000000000e+00
 14         1.3446616561e+00
 15         0.0000000000e+00
 16         0.0000000000e+00
 17         7.5682843276e-01
 18        -6.6493742415e-03
 19         0.0000000000e+00
 20         0.0000000000e+00
 21        -1.1824867906e-02
 22         0.0000000000e+00
 23         1.9838744896e-02
 24         0.0000000000e+00
 25         0.0000000000e+00
 26        -2.3019694629e-01
 27         0.0000000000e+00
 28         5.4439768924e-01
 29         0.0000000000e+00
 30         0.0000000000e+00
 31         9.7572534110e-01
 32         0.0000000000e+00
 33        -1.1086304516e-02
 34         0.0000000000e+00
 35         0.0000000000e+00
 36        -7.6817510309e-02
 37         0.0000000000e+00
 38         0.0000000000e+00
 39         0.0000000000e+00
 40        -1.0993858859e-01
 41         0.0000000000e+00
 42         0.0000000000e+00
 43         5.5836648448e-01
 44         0.0000000000e+00
 45         0.0000000000e+00
 46         0.0000000000e+00
 47         1.0258344443e-03
 48         0.0000000000e+00
 49         0.0000000000e+00
 50        -7.2551977097e-03
 51         0.0000000000e+00
 52         0.0000000000e+00
 53         0.0000000000e+00
 54        -1.7996106265e-02
 55         0.0000000000e+00
 56         4.1129352893e-02
 57        -1.8524888811e-01
 58         3.8005811397e+00
 59        -2.0955446632e-01
 60         0.0000000000e+00
 61         7.7721305174e-02
 62        -7.7152215824e-02
 63         0.0000000000e+00
 64        -5.6913719837e-01
 65         7.1804266945e-01
 66         0.0000000000e+00
 67        -1.2921360375e+00
 68         1.2172445127e+00
 69         6.7876076153e-03
 70         0.0000000000e+00
 71         1.2522737890e-02
 72         2.2342096682e-03
 73         0.0000000000e+00
 74         1.8982574044e-01
 75         0.0000000000e+00
 76        -8.1707734267e-01
 77        -3.4988330696e-01
 78         0.0000000000e+00
 79        -3.7848972977e-02
 80         0.0000000000e+00
 81        -9.5281875481e-02
 82        -9.5663097286e-02
 83         0.0000000000e+00
 84         0.0000000000e+00
 85         6.4567560621e-02
 86         4.1129352893e-02
 87        -1.8524888811e-01
 88         3.8005811397e+00
 89        -2.0955446632e-01
 90         0.0000000000e+00
 91        -7.7721305174e-02
 92        -7.7152215824e-02
 93         0.0000000000e+00
 94         5.6913719837e-01
 95         7.1804266945e-01
 96         0.0000000000e+00
 97         1.2921360375e+00
 98         1.2172445127e+00
 99         6.7876076153e-03
100         0.0000000000e+00
101        -1.2522737890e-02
102         2.2342096682e-03
103         0.0000000000e+00
104         1.8982574044e-01
105         0.0000000000e+00
106         8.1707734267e-01
107        -3.4988330696e-01
108         0.0000000000e+00
109        -3.7848972977e-02
110         0.0000000000e+00
111         9.5281875481e-02
112        -9.5663097286e-02
113         0.0000000000e+00
114         0.0000000000e+00
115        -6.4567560621e-02
 Sym= B1
 Ene=         3.4746982863e+00
 Spin= Beta
 Occup=         0.0000000000e+00
  1         0.0000000000e+00
  2         0.0000000000e+00
  3         0.0000000000e+00
  4         0.0000000000e+00
  5         0.0000000000e+00
  6         1.4551008709e-02
  7         0.0000000000e+00
  8         0.0000000000e+00
  9         8.2906529540e-02
 10         0.0000000000e+00
 11         0.0000000000e+00
 12        -1.9496853307e-01
 13         0.0000000000e+00
 14         0.0000000000e+00
 15         1.1058191656e-01
 16         0.0000000000e+00
 17         0.0000000000e+00
 18         0.0000000000e+00
 19        -1.0646872914e-02
 20         0.0000000000e+00
 21         0.0000000000e+00
 22         0.0000000000e+00
 23         0.0000000000e+00
 24         3.7480294132e-01
 25         0.0000000000e+00
 26         0.0000000000e+00
 27         0.0000000000e+00
 28         0.0000000000e+00
 29         4.2777525800e-02
 30         0.0000000000e+00
 31         0.0000000000e+00
 32         0.0000000000e+00
 33         0.0000000000e+00
 34         6.7426221929e-02
 35         0.0000000000e+00
 36         0.0000000000e+00
 37         0.0000000000e+00
 38         3.6950497045e-02
 39         0.0000000000e+00
 40         0.0000000000e+00
 41        -9.2222315006e-01
 42         0.0000000000e+00
 43         0.0000000000e+00
 44         0.0000000000e+00
 45        -5.6056172783e-01
 46         0.0000000000e+00
 47         0.0000000000e+00
 48         3.0527659964e-04
 49         0.0000000000e+00
 50         0.0000000000e+00
 51         0.0000000000e+00
 52         2.2105871154e-02
 53         0.0000000000e+00
 54         0.0000000000e+00
 55         0.0000000000e+00
 56         0.0000000000e+00
 57         0.0000000000e+00
 58         0.0000000000e+00
 59         0.0000000000e+00
 60         2.5928598945e-03
 61         0.0000000000e+00
 62         0.0000000000e+00
 63         6.3428687774e-02
 64         0.0000000000e+00
 65         0.0000000000e+00
 66        -6.7379261577e-02
 67         0.0000000000e+00
 68         0.0000000000e+00
 69         0.0000000000e+00
 70         2.2849323675e-02
 71         0.0000000000e+00
 72         0.0000000000e+00
 73         5.7232008554e-02
 74         0.0000000000e+00
 75        -3.1128744141e-01
 76         0.0000000000e+00
 77         0.0000000000e+00
 78        -3.4122207181e-01
 79         0.0000000000e+00
 80         2.6174883073e-02
 81         0.0000000000e+00
 82         0.0000000000e+00
 83         1.6362552316e-02
 84         6.7453201641e-02
 85         0.0000000000e+00
 86         0.0000000000e+00
 87         0.0000000000e+00
 88         0.0000000000e+00
 89         0.0000000000e+00
 90         2.5928598945e-03
 91         0.0000000000e+00
 92         0.0000000000e+00
 93         6.3428687774e-02
 94         0.0000000000e+00
 95         0.0000000000e+00
 96        -6.7379261577e-02
 97         0.0000000000e+00
 98         0.0000000000e+00
 99         0.0000000000e+00
100         2.2849323675e-02
101         0.0000000000e+00
102         0.0000000000e+00
103        -5.7232008554e-02
104         0.0000000000e+00
105        -3.1128744141e-01
106         0.0000000000e+00
107         0.0000000000e+00
108         3.4122207181e-01
109         0.0000000000e+00
110         2.6174883073e-02
111         0.0000000000e+00
112         0.0000000000e+00
113        -1.6362552316e-02
114         6.7453201641e-02
115         0.0000000000e+00
 Sym= A2
 Ene=         3.6837729928e+00
 Spin= Beta
 Occup=         0.0000000000e+00
  1         0.0000000000e+00
  2         0.0000000000e+00
  3         0.0000000000e+00
  4         0.0000000000e+00
  5         0.0000000000e+00
  6         0.0000000000e+00
  7         0.0000000000e+00
  8         0.0000000000e+00
  9         0.0000000000e+00
 10         0.0000000000e+00
 11         0.0000000000e+00
 12         0.0000000000e+00
 13         0.0000000000e+00
 14         0.0000000000e+00
 15         0.0000000000e+00
 16         0.0000000000e+00
 17         0.0000000000e+00
 18         0.0000000000e+00
 19         0.0000000000e+00
 20         0.0000000000e+00
 21         0.0000000000e+00
 22         1.1123777007e-02
 23         0.0000000000e+00
 24         0.0000000000e+00
 25         0.0000000000e+00
 26         0.0000000000e+00
 27        -9.5748652734e-01
 28         0.0000000000e+00
 29         0.0000000000e+00
 30         0.0000000000e+00
 31         0.0000000000e+00
 32         1.6988373265e+00
 33         0.0000000000e+00
 34         0.0000000000e+00
 35         0.0000000000e+00
 36         0.0000000000e+00
 37         6.4791619164e-02
 38         0.0000000000e+00
 39         0.0000000000e+00
 40         0.0000000000e+00
 41         0.0000000000e+00
 42         0.0000000000e+00
 43         0.0000000000e+00
 44        -9.9973870868e-01
 45         0.0000000000e+00
 46         0.0000000000e+00
 47         0.0000000000e+00
 48         0.0000000000e+00
 49         0.0000000000e+00
 50         0.0000000000e+00
 51         4.8053303700e-02
 52         0.0000000000e+00
 53         0.0000000000e+00
 54         0.0000000000e+00
 55        -5.7923609260e-02
 56         0.0000000000e+00
 57         0.0000000000e+00
 58         0.0000000000e+00
 59         0.0000000000e+00
 60         5.3274958092e-02
 61         0.0000000000e+00
 62         0.0000000000e+00
 63        -5.4469848236e-01
 64         0.0000000000e+00
 65         0.0000000000e+00
 66        -5.2312552538e-01
 67         0.0000000000e+00
 68         0.0000000000e+00
 69         0.0000000000e+00
 70        -5.8206809285e-02
 71         0.0000000000e+00
 72         0.0000000000e+00
 73         5.8986230998e-02
 74         0.0000000000e+00
 75        -2.6580111338e-01
 76         0.0000000000e+00
 77         0.0000000000e+00
 78         3.1417322680e-01
 79         0.0000000000e+00
 80        -7.8937755149e-02
 81         0.0000000000e+00
 82         0.0000000000e+00
 83         1.5677410265e-01
 84         1.2833166253e-01
 85         0.0000000000e+00
 86         0.0000000000e+00
 87         0.0000000000e+00
 88         0.0000000000e+00
 89         0.0000000000e+00
 90        -5.3274958092e-02
 91         0.0000000000e+00
 92         0.0000000000e+00
 93         5.4469848236e-01
 94         0.0000000000e+00
 95         0.0000000000e+00
 96         5.2312552538e-01
 97         0.0000000000e+00
 98         0.0000000000e+00
 99         0.0000000000e+00
100         5.8206809285e-02
101         0.0000000000e+00
102         0.0000000000e+00
103         5.8986230998e-02
104         0.0000000000e+00
105         2.6580111338e-01
106         0.0000000000e+00
107         0.0000000000e+00
108         3.1417322680e-01
109         0.0000000000e+00
110         7.8937755149e-02
111         0.0000000000e+00
112         0.0000000000e+00
113         1.5677410265e-01
114        -1.2833166253e-01
115         0.0000000000e+00
 Sym= B1
 Ene=         3.7405818474e+00
 Spin= Beta
 Occup=         0.0000000000e+00
  1         0.0000000000e+00
  2         0.0000000000e+00
  3         0.0000000000e+00
  4         0.0000000000e+00
  5         0.0000000000e+00
  6         1.6520128031e-03
  7         0.0000000000e+00
  8         0.0000000000e+00
  9         2.6312679015e-01
 10         0.0000000000e+00
 11         0.0000000000e+00
 12        -1.3923182219e+00
 13         0.0000000000e+00
 14         0.0000000000e+00
 15        -6.0098884287e-01
 16         0.0000000000e+00
 17         0.0000000000e+00
 18         0.0000000000e+00
 19         2.2926281146e-02
 20         0.0000000000e+00
 21         0.0000000000e+00
 22         0.0000000000e+00
 23         0.0000000000e+00
 24        -9.7612760904e-01
 25         0.0000000000e+00
 26         0.0000000000e+00
 27         0.0000000000e+00
 28         0.0000000000e+00
 29         1.7108238603e+00
 30         0.0000000000e+00
 31         0.0000000000e+00
 32         0.0000000000e+00
 33         0.0000000000e+00
 34         5.5122702608e-02
 35         0.0000000000e+00
 36         0.0000000000e+00
 37         0.0000000000e+00
 38        -4.1463990459e-02
 39         0.0000000000e+00
 40         0.0000000000e+00
 41        -7.1556416976e-01
 42         0.0000000000e+00
 43         0.0000000000e+00
 44         0.0000000000e+00
 45         7.0511742209e-01
 46         0.0000000000e+00
 47         0.0000000000e+00
 48        -3.5592724147e-03
 49         0.0000000000e+00
 50         0.0000000000e+00
 51         0.0000000000e+00
 52        -7.3686828974e-02
 53         0.0000000000e+00
 54         0.0000000000e+00
 55         0.0000000000e+00
 56         0.0000000000e+00
 57         0.0000000000e+00
 58         0.0000000000e+00
 59         0.0000000000e+00
 60        -5.5808141437e-02
 61         0.0000000000e+00
 62         0.0000000000e+00
 63         5.6677084275e-01
 64         0.0000000000e+00
 65         0.0000000000e+00
 66         6.9656650413e-01
 67         0.0000000000e+00
 68         0.0000000000e+00
 69         0.0000000000e+00
 70         2.9447989277e-02
 71         0.0000000000e+00
 72         0.0000000000e+00
 73        -3.0613470357e-02
 74         0.0000000000e+00
 75         1.5389579334e-01
 76         0.0000000000e+00
 77         0.0000000000e+00
 78        -6.5458150836e-01
 79         0.0000000000e+00
 80        -5.9271021748e-03
 81         0.0000000000e+00
 82         0.0000000000e+00
 83        -1.3449612340e-01
 84        -1.1083416888e-01
 85         0.0000000000e+00
 86         0.0000000000e+00
 87         0.0000000000e+00
 88         0.0000000000e+00
 89         0.0000000000e+00
 90        -5.5808141437e-02
 91         0.0000000000e+00
 92         0.0000000000e+00
 93         5.6677084275e-01
 94         0.0000000000e+00
 95         0.0000000000e+00
 96         6.9656650413e-01
 97         0.0000000000e+00
 98         0.0000000000e+00
 99         0.0000000000e+00
100         2.9447989277e-02
101         0.0000000000e+00
102         0.0000000000e+00
103         3.0613470357e-02
104         0.0000000000e+00
105         1.5389579334e-01
106         0.0000000000e+00
107         0.0000000000e+00
108         6.5458150836e-01
109         0.0000000000e+00
110        -5.9271021748e-03
111         0.0000000000e+00
112         0.0000000000e+00
113         1.3449612340e-01
114        -1.1083416888e-01
115         0.0000000000e+00
 Sym= A1
 Ene=         3.8143491928e+00
 Spin= Beta
 Occup=         0.0000000000e+00
  1         6.7626210018e-02
  2         1.3321542897e-01
  3         6.2223650458e-01
  4        -1.7556562180e+00
  5        -1.7450711859e+00
  6         0.0000000000e+00
  7         0.0000000000e+00
  8        -1.4859328501e-02
  9         0.0000000000e+00
 10         0.0000000000e+00
 11        -2.8057182990e-01
 12         0.0000000000e+00
 13         0.0000000000e+00
 14         2.2669567483e+00
 15         0.0000000000e+00
 16         0.0000000000e+00
 17         1.0420460807e+00
 18        -7.9307651897e-03
 19         0.0000000000e+00
 20         0.0000000000e+00
 21        -4.9976190877e-03
 22         0.0000000000e+00
 23         7.6855877869e-01
 24         0.0000000000e+00
 25         0.0000000000e+00
 26         1.9874774409e-01
 27         0.0000000000e+00
 28        -2.2129389099e+00
 29         0.0000000000e+00
 30         0.0000000000e+00
 31        -4.6606469892e-01
 32         0.0000000000e+00
 33        -7.9515767377e-02
 34         0.0000000000e+00
 35         0.0000000000e+00
 36        -7.9373056519e-03
 37         0.0000000000e+00
 38         0.0000000000e+00
 39         0.0000000000e+00
 40         1.0011340701e+00
 41         0.0000000000e+00
 42         0.0000000000e+00
 43        -1.7857811041e-01
 44         0.0000000000e+00
 45         0.0000000000e+00
 46         0.0000000000e+00
 47         2.1186652790e-02
 48         0.0000000000e+00
 49         0.0000000000e+00
 50         5.5161350747e-02
 51         0.0000000000e+00
 52         0.0000000000e+00
 53         0.0000000000e+00
 54         2.3292644241e-02
 55         0.0000000000e+00
 56         6.2144615760e-02
 57         1.0969710523e-01
 58         1.6326916631e+00
 59        -1.3498159398e-01
 60         0.0000000000e+00
 61         1.1870801629e-01
 62        -1.2201025063e-03
 63         0.0000000000e+00
 64        -1.0685358319e+00
 65        -2.5121716492e-01
 66         0.0000000000e+00
 67        -7.1788847814e-01
 68        -3.7745589783e-01
 69        -4.5642252647e-02
 70         0.0000000000e+00
 71        -1.3244395693e-02
 72        -3.6786469820e-03
 73         0.0000000000e+00
 74        -4.0199527149e-01
 75         0.0000000000e+00
 76         1.4636599007e-01
 77        -6.1163446253e-01
 78         0.0000000000e+00
 79        -9.1451558521e-02
 80         0.0000000000e+00
 81         1.1938117110e-01
 82        -6.4433891765e-02
 83         0.0000000000e+00
 84         0.0000000000e+00
 85         1.1154623785e-01
 86         6.2144615760e-02
 87         1.0969710523e-01
 88         1.6326916631e+00
 89        -1.3498159398e-01
 90         0.0000000000e+00
 91        -1.1870801629e-01
 92        -1.2201025063e-03
 93         0.0000000000e+00
 94         1.0685358319e+00
 95        -2.5121716492e-01
 96         0.0000000000e+00
 97         7.1788847814e-01
 98        -3.7745589783e-01
 99        -4.5642252647e-02
100         0.0000000000e+00
101         1.3244395693e-02
102        -3.6786469820e-03
103         0.0000000000e+00
104        -4.0199527149e-01
105         0.0000000000e+00
106        -1.4636599007e-01
107        -6.1163446253e-01
108         0.0000000000e+00
109        -9.1451558521e-02
110         0.0000000000e+00
111        -1.1938117110e-01
112        -6.4433891765e-02
113         0.0000000000e+00
114         0.0000000000e+00
115        -1.1154623785e-01
 Sym= B2
 Ene=         3.9723381096e+00
 Spin= Beta
 Occup=         0.0000000000e+00
  1         0.0000000000e+00
  2         0.0000000000e+00
  3         0.0000000000e+00
  4         0.0000000000e+00
  5         0.0000000000e+00
  6         0.0000000000e+00
  7         1.1367377552e-01
  8         0.0000000000e+00
  9         0.0000000000e+00
 10         1.0799791332e+00
 11         0.0000000000e+00
 12         0.0000000000e+00
 13        -3.3932757057e+00
 14         0.0000000000e+00
 15         0.0000000000e+00
 16        -1.0545278953e+00
 17         0.0000000000e+00
 18         0.0000000000e+00
 19         0.0000000000e+00
 20        -1.3408265303e-02
 21         0.0000000000e+00
 22         0.0000000000e+00
 23         0.0000000000e+00
 24         0.0000000000e+00
 25        -2.4425664443e-01
 26         0.0000000000e+00
 27         0.0000000000e+00
 28         0.0000000000e+00
 29         0.0000000000e+00
 30         2.2602190591e+00
 31         0.0000000000e+00
 32         0.0000000000e+00
 33         0.0000000000e+00
 34         0.0000000000e+00
 35         1.4757364962e-02
 36         0.0000000000e+00
 37         0.0000000000e+00
 38         0.0000000000e+00
 39        -7.7838465056e-02
 40         0.0000000000e+00
 41         0.0000000000e+00
 42        -2.6924435057e-01
 43         0.0000000000e+00
 44         0.0000000000e+00
 45         0.0000000000e+00
 46         1.2986551202e+00
 47         0.0000000000e+00
 48         0.0000000000e+00
 49        -3.3313628513e-02
 50         0.0000000000e+00
 51         0.0000000000e+00
 52         0.0000000000e+00
 53        -6.5281364415e-02
 54         0.0000000000e+00
 55         0.0000000000e+00
 56        -5.6938052640e-02
 57         2.3610821669e+00
 58         3.8444593077e-01
 59         5.8545189339e-02
 60         0.0000000000e+00
 61        -1.0127682979e-02
 62        -1.5395828092e-02
 63         0.0000000000e+00
 64        -6.3468415711e-01
 65         7.2263817886e-01
 66         0.0000000000e+00
 67         5.0219473548e-01
 68         6.7714694364e-02
 69        -2.7103152547e-02
 70         0.0000000000e+00
 71        -1.3832413425e-01
 72        -9.4086069644e-02
 73         0.0000000000e+00
 74         3.9074851222e-01
 75         0.0000000000e+00
 76         2.7482893682e-01
 77         5.0135723446e-01
 78         0.0000000000e+00
 79        -4.2030215197e-02
 80         0.0000000000e+00
 81        -6.6070379529e-02
 82        -2.6694168599e-03
 83         0.0000000000e+00
 84         0.0000000000e+00
 85         4.0742502565e-02
 86         5.6938052640e-02
 87        -2.3610821669e+00
 88        -3.8444593077e-01
 89        -5.8545189339e-02
 90         0.0000000000e+00
 91        -1.0127682979e-02
 92         1.5395828092e-02
 93         0.0000000000e+00
 94        -6.3468415711e-01
 95        -7.2263817886e-01
 96         0.0000000000e+00
 97         5.0219473548e-01
 98        -6.7714694364e-02
 99         2.7103152547e-02
100         0.0000000000e+00
101        -1.3832413425e-01
102         9.4086069644e-02
103         0.0000000000e+00
104        -3.9074851222e-01
105         0.0000000000e+00
106         2.7482893682e-01
107        -5.0135723446e-01
108         0.0000000000e+00
109         4.2030215197e-02
110         0.0000000000e+00
111        -6.6070379529e-02
112         2.6694168599e-03
113         0.0000000000e+00
114         0.0000000000e+00
115         4.0742502565e-02
 Sym= A1
 Ene=         3.9877521227e+00
 Spin= Beta
 Occup=         0.0000000000e+00
  1         1.3052548677e-03
  2         6.7173062583e-04
  3        -2.4615348458e-01
  4         1.7704455575e+00
  5        -2.4798715659e+00
  6         0.0000000000e+00
  7         0.0000000000e+00
  8         3.4685143352e-03
  9         0.0000000000e+00
 10         0.0000000000e+00
 11         1.0148648293e-02
 12         0.0000000000e+00
 13         0.0000000000e+00
 14        -1.1773093191e+00
 15         0.0000000000e+00
 16         0.0000000000e+00
 17         6.4720473095e-01
 18        -2.5380258386e-02
 19         0.0000000000e+00
 20         0.0000000000e+00
 21         2.8767951667e-02
 22         0.0000000000e+00
 23         8.8504813584e-01
 24         0.0000000000e+00
 25         0.0000000000e+00
 26        -6.3091730909e-01
 27         0.0000000000e+00
 28         6.4076676735e-01
 29         0.0000000000e+00
 30         0.0000000000e+00
 31         1.3532748572e+00
 32         0.0000000000e+00
 33         4.5867037309e-02
 34         0.0000000000e+00
 35         0.0000000000e+00
 36         3.7199364321e-02
 37         0.0000000000e+00
 38         0.0000000000e+00
 39         0.0000000000e+00
 40        -6.8233059550e-01
 41         0.0000000000e+00
 42         0.0000000000e+00
 43        -2.6567658431e-01
 44         0.0000000000e+00
 45         0.0000000000e+00
 46         0.0000000000e+00
 47         8.0836204396e-03
 48         0.0000000000e+00
 49         0.0000000000e+00
 50         1.9529196613e-02
 51         0.0000000000e+00
 52         0.0000000000e+00
 53         0.0000000000e+00
 54        -9.4421835036e-03
 55         0.0000000000e+00
 56        -1.1346342514e-01
 57         3.4031579913e-01
 58         5.5543793400e-01
 59         1.8849611205e-01
 60         0.0000000000e+00
 61        -1.3913062920e-01
 62         1.8331715158e-02
 63         0.0000000000e+00
 64         9.0262785622e-01
 65         3.6933879465e-01
 66         0.0000000000e+00
 67        -9.9702210038e-02
 68         2.8716957017e-01
 69        -3.4371618317e-02
 70         0.0000000000e+00
 71         6.0802369951e-03
 72        -7.5118878030e-02
 73         0.0000000000e+00
 74         5.6821783128e-01
 75         0.0000000000e+00
 76         1.9033696865e-02
 77         5.8083666611e-01
 78         0.0000000000e+00
 79         8.3309257220e-02
 80         0.0000000000e+00
 81         5.0816975518e-02
 82         5.6237069844e-02
 83         0.0000000000e+00
 84         0.0000000000e+00
 85         1.0539178849e-02
 86        -1.1346342514e-01
 87         3.4031579913e-01
 88         5.5543793400e-01
 89         1.8849611205e-01
 90         0.0000000000e+00
 91         1.3913062920e-01
 92         1.8331715158e-02
 93         0.0000000000e+00
 94        -9.0262785622e-01
 95         3.6933879465e-01
 96         0.0000000000e+00
 97         9.9702210038e-02
 98         2.8716957017e-01
 99        -3.4371618317e-02
100         0.0000000000e+00
101        -6.0802369951e-03
102        -7.5118878030e-02
103         0.0000000000e+00
104         5.6821783128e-01
105         0.0000000000e+00
106        -1.9033696865e-02
107         5.8083666611e-01
108         0.0000000000e+00
109         8.3309257220e-02
110         0.0000000000e+00
111        -5.0816975518e-02
112         5.6237069844e-02
113         0.0000000000e+00
114         0.0000000000e+00
115        -1.0539178849e-02
 Sym= A1
 Ene=         4.0709751278e+00
 Spin= Beta
 Occup=         0.0000000000e+00
  1         1.9995754947e-01
  2         4.1573481478e-01
  3         1.1326935209e+00
  4        -2.0384315813e-01
  5        -1.7816183437e+00
  6         0.0000000000e+00
  7         0.0000000000e+00
  8        -9.6202428062e-02
  9         0.0000000000e+00
 10         0.0000000000e+00
 11        -6.5642101506e-01
 12         0.0000000000e+00
 13         0.0000000000e+00
 14         1.8247026195e+00
 15         0.0000000000e+00
 16         0.0000000000e+00
 17         6.6154007425e-01
 18        -1.7772386341e-03
 19         0.0000000000e+00
 20         0.0000000000e+00
 21         6.6676730334e-03
 22         0.0000000000e+00
 23        -2.2149219771e-01
 24         0.0000000000e+00
 25         0.0000000000e+00
 26        -7.6529082837e-01
 27         0.0000000000e+00
 28        -6.8098706743e-01
 29         0.0000000000e+00
 30         0.0000000000e+00
 31         1.0708839775e+00
 32         0.0000000000e+00
 33        -8.2644293506e-04
 34         0.0000000000e+00
 35         0.0000000000e+00
 36         5.9779522323e-02
 37         0.0000000000e+00
 38         0.0000000000e+00
 39         0.0000000000e+00
 40        -1.1747547827e-02
 41         0.0000000000e+00
 42         0.0000000000e+00
 43        -9.9106792555e-01
 44         0.0000000000e+00
 45         0.0000000000e+00
 46         0.0000000000e+00
 47         2.9352574924e-02
 48         0.0000000000e+00
 49         0.0000000000e+00
 50         3.2578161798e-02
 51         0.0000000000e+00
 52         0.0000000000e+00
 53         0.0000000000e+00
 54        -3.1862545483e-02
 55         0.0000000000e+00
 56        -8.4940826924e-02
 57         1.3486340966e+00
 58         2.9963204655e-01
 59         6.2800951300e-02
 60         0.0000000000e+00
 61        -4.2059858136e-02
 62         7.4549956766e-02
 63         0.0000000000e+00
 64        -4.8430913507e-01
 65        -1.9586590828e-01
 66         0.0000000000e+00
 67         3.8944058597e-02
 68        -2.5774653754e-01
 69         6.0611741166e-02
 70         0.0000000000e+00
 71        -1.4978399440e-01
 72        -4.3502754018e-02
 73         0.0000000000e+00
 74        -3.3036338569e-01
 75         0.0000000000e+00
 76         6.4264123523e-01
 77        -3.6426919122e-02
 78         0.0000000000e+00
 79         1.1104924304e-02
 80         0.0000000000e+00
 81        -6.6587330048e-02
 82        -6.3972404252e-02
 83         0.0000000000e+00
 84         0.0000000000e+00
 85        -4.3514915379e-03
 86        -8.4940826924e-02
 87         1.3486340966e+00
 88         2.9963204655e-01
 89         6.2800951300e-02
 90         0.0000000000e+00
 91         4.2059858136e-02
 92         7.4549956766e-02
 93         0.0000000000e+00
 94         4.8430913507e-01
 95        -1.9586590828e-01
 96         0.0000000000e+00
 97        -3.8944058597e-02
 98        -2.5774653754e-01
 99         6.0611741166e-02
100         0.0000000000e+00
101         1.4978399440e-01
102        -4.3502754018e-02
103         0.0000000000e+00
104        -3.3036338569e-01
105         0.0000000000e+00
106        -6.4264123523e-01
107        -3.6426919122e-02
108         0.0000000000e+00
109         1.1104924304e-02
110         0.0000000000e+00
111         6.6587330048e-02
112        -6.3972404252e-02
113         0.0000000000e+00
114         0.0000000000e+00
115         4.3514915379e-03
 Sym= B1
 Ene=         4.1830534182e+00
 Spin= Beta
 Occup=         0.0000000000e+00
  1         0.0000000000e+00
  2         0.0000000000e+00
  3         0.0000000000e+00
  4         0.0000000000e+00
  5         0.0000000000e+00
  6         5.9666858580e-02
  7         0.0000000000e+00
  8         0.0000000000e+00
  9         5.3703668500e-01
 10         0.0000000000e+00
 11         0.0000000000e+00
 12        -2.4211349663e+00
 13         0.0000000000e+00
 14         0.0000000000e+00
 15        -3.0056600724e-01
 16         0.0000000000e+00
 17         0.0000000000e+00
 18         0.0000000000e+00
 19        -2.6190325050e-02
 20         0.0000000000e+00
 21         0.0000000000e+00
 22         0.0000000000e+00
 23         0.0000000000e+00
 24         6.6473979508e-01
 25         0.0000000000e+00
 26         0.0000000000e+00
 27         0.0000000000e+00
 28         0.0000000000e+00
 29         9.2562555572e-01
 30         0.0000000000e+00
 31         0.0000000000e+00
 32         0.0000000000e+00
 33         0.0000000000e+00
 34         1.1369314782e-02
 35         0.0000000000e+00
 36         0.0000000000e+00
 37         0.0000000000e+00
 38        -8.6473762936e-02
 39         0.0000000000e+00
 40         0.0000000000e+00
 41        -2.6053585593e-01
 42         0.0000000000e+00
 43         0.0000000000e+00
 44         0.0000000000e+00
 45         1.4392130139e+00
 46         0.0000000000e+00
 47         0.0000000000e+00
 48         5.2155119436e-04
 49         0.0000000000e+00
 50         0.0000000000e+00
 51         0.0000000000e+00
 52        -2.4201868718e-02
 53         0.0000000000e+00
 54         0.0000000000e+00
 55         0.0000000000e+00
 56         0.0000000000e+00
 57         0.0000000000e+00
 58         0.0000000000e+00
 59         0.0000000000e+00
 60        -9.9028684102e-02
 61         0.0000000000e+00
 62         0.0000000000e+00
 63         1.1365729959e+00
 64         0.0000000000e+00
 65         0.0000000000e+00
 66         5.0149392981e-01
 67         0.0000000000e+00
 68         0.0000000000e+00
 69         0.0000000000e+00
 70        -3.8014079265e-02
 71         0.0000000000e+00
 72         0.0000000000e+00
 73         4.2198402828e-02
 74         0.0000000000e+00
 75         7.3302142209e-01
 76         0.0000000000e+00
 77         0.0000000000e+00
 78        -9.0739064087e-01
 79         0.0000000000e+00
 80        -1.8771112178e-02
 81         0.0000000000e+00
 82         0.0000000000e+00
 83        -9.9433642841e-02
 84         1.6072365596e-03
 85         0.0000000000e+00
 86         0.0000000000e+00
 87         0.0000000000e+00
 88         0.0000000000e+00
 89         0.0000000000e+00
 90        -9.9028684102e-02
 91         0.0000000000e+00
 92         0.0000000000e+00
 93         1.1365729959e+00
 94         0.0000000000e+00
 95         0.0000000000e+00
 96         5.0149392981e-01
 97         0.0000000000e+00
 98         0.0000000000e+00
 99         0.0000000000e+00
100        -3.8014079265e-02
101         0.0000000000e+00
102         0.0000000000e+00
103        -4.2198402828e-02
104         0.0000000000e+00
105         7.3302142209e-01
106         0.0000000000e+00
107         0.0000000000e+00
108         9.0739064087e-01
109         0.0000000000e+00
110        -1.8771112178e-02
111         0.0000000000e+00
112         0.0000000000e+00
113         9.9433642841e-02
114         1.6072365596e-03
115         0.0000000000e+00
 Sym= A2
 Ene=         4.3254628847e+00
 Spin= Beta
 Occup=         0.0000000000e+00
  1         0.0000000000e+00
  2         0.0000000000e+00
  3         0.0000000000e+00
  4         0.0000000000e+00
  5         0.0000000000e+00
  6         0.0000000000e+00
  7         0.0000000000e+00
  8         0.0000000000e+00
  9         0.0000000000e+00
 10         0.0000000000e+00
 11         0.0000000000e+00
 12         0.0000000000e+00
 13         0.0000000000e+00
 14         0.0000000000e+00
 15         0.0000000000e+00
 16         0.0000000000e+00
 17         0.0000000000e+00
 18         0.0000000000e+00
 19         0.0000000000e+00
 20         0.0000000000e+00
 21         0.0000000000e+00
 22         2.2230082929e-02
 23         0.0000000000e+00
 24         0.0000000000e+00
 25         0.0000000000e+00
 26         0.0000000000e+00
 27        -6.6360120677e-01
 28         0.0000000000e+00
 29         0.0000000000e+00
 30         0.0000000000e+00
 31         0.0000000000e+00
 32        -1.5663442815e+00
 33         0.0000000000e+00
 34         0.0000000000e+00
 35         0.0000000000e+00
 36         0.0000000000e+00
 37        -8.9640778455e-02
 38         0.0000000000e+00
 39         0.0000000000e+00
 40         0.0000000000e+00
 41         0.0000000000e+00
 42         0.0000000000e+00
 43         0.0000000000e+00
 44         1.6425115342e+00
 45         0.0000000000e+00
 46         0.0000000000e+00
 47         0.0000000000e+00
 48         0.0000000000e+00
 49         0.0000000000e+00
 50         0.0000000000e+00
 51        -1.1836478334e-02
 52         0.0000000000e+00
 53         0.0000000000e+00
 54         0.0000000000e+00
 55        -2.1928644011e-04
 56         0.0000000000e+00
 57         0.0000000000e+00
 58         0.0000000000e+00
 59         0.0000000000e+00
 60        -1.1132799320e-01
 61         0.0000000000e+00
 62         0.0000000000e+00
 63         1.2197181366e+00
 64         0.0000000000e+00
 65         0.0000000000e+00
 66         5.0617652993e-01
 67         0.0000000000e+00
 68         0.0000000000e+00
 69         0.0000000000e+00
 70        -3.1035327426e-02
 71         0.0000000000e+00
 72         0.0000000000e+00
 73         4.9913341921e-02
 74         0.0000000000e+00
 75         6.6986562636e-01
 76         0.0000000000e+00
 77         0.0000000000e+00
 78        -9.6195925568e-01
 79         0.0000000000e+00
 80         5.4926730951e-02
 81         0.0000000000e+00
 82         0.0000000000e+00
 83         4.1643576978e-03
 84        -8.1828690324e-02
 85         0.0000000000e+00
 86         0.0000000000e+00
 87         0.0000000000e+00
 88         0.0000000000e+00
 89         0.0000000000e+00
 90         1.1132799320e-01
 91         0.0000000000e+00
 92         0.0000000000e+00
 93        -1.2197181366e+00
 94         0.0000000000e+00
 95         0.0000000000e+00
 96        -5.0617652993e-01
 97         0.0000000000e+00
 98         0.0000000000e+00
 99         0.0000000000e+00
100         3.1035327426e-02
101         0.0000000000e+00
102         0.0000000000e+00
103         4.9913341921e-02
104         0.0000000000e+00
105        -6.6986562636e-01
106         0.0000000000e+00
107         0.0000000000e+00
108        -9.6195925568e-01
109         0.0000000000e+00
110        -5.4926730951e-02
111         0.0000000000e+00
112         0.0000000000e+00
113         4.1643576978e-03
114         8.1828690324e-02
115         0.0000000000e+00
 Sym= B2
 Ene=         4.4505394793e+00
 Spin= Beta
 Occup=         0.0000000000e+00
  1         0.0000000000e+00
  2         0.0000000000e+00
  3         0.0000000000e+00
  4         0.0000000000e+00
  5         0.0000000000e+00
  6         0.0000000000e+00
  7         2.8493326102e-02
  8         0.0000000000e+00
  9         0.0000000000e+00
 10         1.3264914607e-01
 11         0.0000000000e+00
 12         0.0000000000e+00
 13         2.2006090601e+00
 14         0.0000000000e+00
 15         0.0000000000e+00
 16        -2.4227560556e-01
 17         0.0000000000e+00
 18         0.0000000000e+00
 19         0.0000000000e+00
 20         2.3924876900e-02
 21         0.0000000000e+00
 22         0.0000000000e+00
 23         0.0000000000e+00
 24         0.0000000000e+00
 25        -8.1532213366e-01
 26         0.0000000000e+00
 27         0.0000000000e+00
 28         0.0000000000e+00
 29         0.0000000000e+00
 30         1.5284956631e+00
 31         0.0000000000e+00
 32         0.0000000000e+00
 33         0.0000000000e+00
 34         0.0000000000e+00
 35         1.1582467705e-01
 36         0.0000000000e+00
 37         0.0000000000e+00
 38         0.0000000000e+00
 39         2.1622678492e-02
 40         0.0000000000e+00
 41         0.0000000000e+00
 42        -1.9798672983e+00
 43         0.0000000000e+00
 44         0.0000000000e+00
 45         0.0000000000e+00
 46        -7.3242170812e-01
 47         0.0000000000e+00
 48         0.0000000000e+00
 49         8.5135691107e-02
 50         0.0000000000e+00
 51         0.0000000000e+00
 52         0.0000000000e+00
 53         6.5428605208e-03
 54         0.0000000000e+00
 55         0.0000000000e+00
 56        -1.2551759361e-01
 57         5.3464048455e-01
 58        -1.0524326136e+00
 59         2.3775347192e-01
 60         0.0000000000e+00
 61        -4.9645288494e-02
 62         1.9103529219e-01
 63         0.0000000000e+00
 64        -1.7526327605e-01
 65        -1.4935484132e+00
 66         0.0000000000e+00
 67         2.0788949961e-01
 68        -5.9976232891e-01
 69        -3.0222289034e-03
 70         0.0000000000e+00
 71        -1.5281557925e-02
 72        -4.3788711924e-02
 73         0.0000000000e+00
 74        -1.0454604967e+00
 75         0.0000000000e+00
 76         7.5414391573e-01
 77        -4.6367631569e-02
 78         0.0000000000e+00
 79        -6.2253631533e-03
 80         0.0000000000e+00
 81         2.5027609695e-01
 82         7.1966782556e-02
 83         0.0000000000e+00
 84         0.0000000000e+00
 85         4.9893145479e-02
 86         1.2551759361e-01
 87        -5.3464048455e-01
 88         1.0524326136e+00
 89        -2.3775347192e-01
 90         0.0000000000e+00
 91        -4.9645288494e-02
 92        -1.9103529219e-01
 93         0.0000000000e+00
 94        -1.7526327605e-01
 95         1.4935484132e+00
 96         0.0000000000e+00
 97         2.0788949961e-01
 98         5.9976232891e-01
 99         3.0222289034e-03
100         0.0000000000e+00
101        -1.5281557925e-02
102         4.3788711924e-02
103         0.0000000000e+00
104         1.0454604967e+00
105         0.0000000000e+00
106         7.5414391573e-01
107         4.6367631569e-02
108         0.0000000000e+00
109         6.2253631533e-03
110         0.0000000000e+00
111         2.5027609695e-01
112        -7.1966782556e-02
113         0.0000000000e+00
114         0.0000000000e+00
115         4.9893145479e-02
 Sym= B2
 Ene=         4.7985742956e+00
 Spin= Beta
 Occup=         0.0000000000e+00
  1         0.0000000000e+00
  2         0.0000000000e+00
  3         0.0000000000e+00
  4         0.0000000000e+00
  5         0.0000000000e+00
  6         0.0000000000e+00
  7         1.1337650481e-02
  8         0.0000000000e+00
  9         0.0000000000e+00
 10         3.9680485610e-02
 11         0.0000000000e+00
 12         0.0000000000e+00
 13        -4.4140698344e+00
 14         0.0000000000e+00
 15         0.0000000000e+00
 16        -9.2316220143e-01
 17         0.0000000000e+00
 18         0.0000000000e+00
 19         0.0000000000e+00
 20        -7.1606995054e-02
 21         0.0000000000e+00
 22         0.0000000000e+00
 23         0.0000000000e+00
 24         0.0000000000e+00
 25         1.6488210515e+00
 26         0.0000000000e+00
 27         0.0000000000e+00
 28         0.0000000000e+00
 29         0.0000000000e+00
 30         1.6167619733e+00
 31         0.0000000000e+00
 32         0.0000000000e+00
 33         0.0000000000e+00
 34         0.0000000000e+00
 35         2.5336330996e-02
 36         0.0000000000e+00
 37         0.0000000000e+00
 38         0.0000000000e+00
 39         1.0626700342e-02
 40         0.0000000000e+00
 41         0.0000000000e+00
 42        -1.1930422742e+00
 43         0.0000000000e+00
 44         0.0000000000e+00
 45         0.0000000000e+00
 46         2.2552437545e-01
 47         0.0000000000e+00
 48         0.0000000000e+00
 49        -1.3618865548e-02
 50         0.0000000000e+00
 51         0.0000000000e+00
 52         0.0000000000e+00
 53         1.3371117427e-03
 54         0.0000000000e+00
 55         0.0000000000e+00
 56         1.8847106068e-01
 57         1.4305109681e+00
 58         3.6396277284e+00
 59        -2.3117005616e-01
 60         0.0000000000e+00
 61         2.8234037956e-01
 62        -1.3663101878e-01
 63         0.0000000000e+00
 64        -2.2009116916e+00
 65         8.9103664001e-01
 66         0.0000000000e+00
 67        -1.2452636032e+00
 68         6.3606933912e-01
 69         5.2552685300e-02
 70         0.0000000000e+00
 71        -2.6217767000e-02
 72        -1.7083907779e-02
 73         0.0000000000e+00
 74        -4.3295780314e-01
 75         0.0000000000e+00
 76        -6.2833251327e-01
 77        -8.3919381139e-01
 78         0.0000000000e+00
 79        -6.9946347384e-02
 80         0.0000000000e+00
 81        -1.0099752028e-01
 82        -1.5260591062e-01
 83         0.0000000000e+00
 84         0.0000000000e+00
 85         1.6177847527e-01
 86        -1.8847106068e-01
 87        -1.4305109681e+00
 88        -3.6396277284e+00
 89         2.3117005616e-01
 90         0.0000000000e+00
 91         2.8234037956e-01
 92         1.3663101878e-01
 93         0.0000000000e+00
 94        -2.2009116916e+00
 95        -8.9103664001e-01
 96         0.0000000000e+00
 97        -1.2452636032e+00
 98        -6.3606933912e-01
 99        -5.2552685300e-02
100         0.0000000000e+00
101        -2.6217767000e-02
102         1.7083907779e-02
103         0.0000000000e+00
104         4.3295780314e-01
105         0.0000000000e+00
106        -6.2833251327e-01
107         8.3919381139e-01
108         0.0000000000e+00
109         6.9946347384e-02
110         0.0000000000e+00
111        -1.0099752028e-01
112         1.5260591062e-01
113         0.0000000000e+00
114         0.0000000000e+00
115         1.6177847527e-01
 Sym= A1
 Ene=         4.9479466380e+00
 Spin= Beta
 Occup=         0.0000000000e+00
  1         3.3214612175e-01
  2         6.4276077951e-01
  3         3.0330495771e+00
  4        -8.2157757967e+00
  5        -5.2193839323e+00
  6         0.0000000000e+00
  7         0.0000000000e+00
  8         5.0534636765e-04
  9         0.0000000000e+00
 10         0.0000000000e+00
 11        -9.5481198964e-03
 12         0.0000000000e+00
 13         0.0000000000e+00
 14         3.6660467615e+00
 15         0.0000000000e+00
 16         0.0000000000e+00
 17         1.0460501805e+00
 18         4.8815814175e-03
 19         0.0000000000e+00
 20         0.0000000000e+00
 21        -6.5850523785e-02
 22         0.0000000000e+00
 23        -5.1281030414e-03
 24         0.0000000000e+00
 25         0.0000000000e+00
 26         1.2036491740e+00
 27         0.0000000000e+00
 28         7.0005307916e-01
 29         0.0000000000e+00
 30         0.0000000000e+00
 31         1.8121452870e+00
 32         0.0000000000e+00
 33         7.4234120603e-03
 34         0.0000000000e+00
 35         0.0000000000e+00
 36        -7.5030193998e-03
 37         0.0000000000e+00
 38         0.0000000000e+00
 39         0.0000000000e+00
 40        -1.0412791719e+00
 41         0.0000000000e+00
 42         0.0000000000e+00
 43        -1.2733090600e+00
 44         0.0000000000e+00
 45         0.0000000000e+00
 46         0.0000000000e+00
 47         1.0707217653e-02
 48         0.0000000000e+00
 49         0.0000000000e+00
 50         4.8167748180e-02
 51         0.0000000000e+00
 52         0.0000000000e+00
 53         0.0000000000e+00
 54         7.1275611877e-03
 55         0.0000000000e+00
 56         1.6140045161e-01
 57         2.1255554105e+00
 58         4.2959011412e+00
 59        -1.4618842222e-01
 60         0.0000000000e+00
 61         2.1533472876e-01
 62        -1.8492650482e-01
 63         0.0000000000e+00
 64        -1.9211416565e+00
 65         1.9681022005e+00
 66         0.0000000000e+00
 67        -1.1536923891e+00
 68         1.0114231624e+00
 69        -2.4420352081e-02
 70         0.0000000000e+00
 71        -7.8744235560e-02
 72        -1.1548601817e-01
 73         0.0000000000e+00
 74         2.5075989371e-01
 75         0.0000000000e+00
 76        -1.0033207930e+00
 77        -3.3544627429e-01
 78         0.0000000000e+00
 79        -4.7097895198e-02
 80         0.0000000000e+00
 81        -5.8120969500e-02
 82        -3.9016828816e-01
 83         0.0000000000e+00
 84         0.0000000000e+00
 85         9.5206458786e-02
 86         1.6140045161e-01
 87         2.1255554105e+00
 88         4.2959011412e+00
 89        -1.4618842222e-01
 90         0.0000000000e+00
 91        -2.1533472876e-01
 92        -1.8492650482e-01
 93         0.0000000000e+00
 94         1.9211416565e+00
 95         1.9681022005e+00
 96         0.0000000000e+00
 97         1.1536923891e+00
 98         1.0114231624e+00
 99        -2.4420352081e-02
100         0.0000000000e+00
101         7.8744235560e-02
102        -1.1548601817e-01
103         0.0000000000e+00
104         2.5075989371e-01
105         0.0000000000e+00
106         1.0033207930e+00
107        -3.3544627429e-01
108         0.0000000000e+00
109        -4.7097895198e-02
110         0.0000000000e+00
111         5.8120969500e-02
112        -3.9016828816e-01
113         0.0000000000e+00
114         0.0000000000e+00
115        -9.5206458786e-02
 Sym= B1
 Ene=         5.6365639778e+00
 Spin= Beta
 Occup=         0.0000000000e+00
  1         0.0000000000e+00
  2         0.0000000000e+00
  3         0.0000000000e+00
  4         0.0000000000e+00
  5         0.0000000000e+00
  6         2.5034343876e-02
  7         0.0000000000e+00
  8         0.0000000000e+00
  9         6.0049054487e-02
 10         0.0000000000e+00
 11         0.0000000000e+00
 12        -3.3850525597e-01
 13         0.0000000000e+00
 14         0.0000000000e+00
 15        -4.8404140382e-02
 16         0.0000000000e+00
 17         0.0000000000e+00
 18         0.0000000000e+00
 19         1.9953298118e-03
 20         0.0000000000e+00
 21         0.0000000000e+00
 22         0.0000000000e+00
 23         0.0000000000e+00
 24         3.3140239249e-02
 25         0.0000000000e+00
 26         0.0000000000e+00
 27         0.0000000000e+00
 28         0.0000000000e+00
 29         2.2270417411e-01
 30         0.0000000000e+00
 31         0.0000000000e+00
 32         0.0000000000e+00
 33         0.0000000000e+00
 34         7.5047097183e-03
 35         0.0000000000e+00
 36         0.0000000000e+00
 37         0.0000000000e+00
 38         7.8129580427e-03
 39         0.0000000000e+00
 40         0.0000000000e+00
 41        -2.7088277402e-01
 42         0.0000000000e+00
 43         0.0000000000e+00
 44         0.0000000000e+00
 45         2.5442443551e-01
 46         0.0000000000e+00
 47         0.0000000000e+00
 48        -9.0712325734e-02
 49         0.0000000000e+00
 50         0.0000000000e+00
 51         0.0000000000e+00
 52        -1.3496155746e-02
 53         0.0000000000e+00
 54         0.0000000000e+00
 55         0.0000000000e+00
 56         0.0000000000e+00
 57         0.0000000000e+00
 58         0.0000000000e+00
 59         0.0000000000e+00
 60        -2.5447653602e-02
 61         0.0000000000e+00
 62         0.0000000000e+00
 63         2.2344220478e-01
 64         0.0000000000e+00
 65         0.0000000000e+00
 66         4.9304726670e-02
 67         0.0000000000e+00
 68         0.0000000000e+00
 69         0.0000000000e+00
 70        -2.1534493183e-02
 71         0.0000000000e+00
 72         0.0000000000e+00
 73         5.1733924101e-02
 74         0.0000000000e+00
 75         8.0872257437e-02
 76         0.0000000000e+00
 77         0.0000000000e+00
 78        -1.5763552442e-01
 79         0.0000000000e+00
 80         3.7626855860e-01
 81         0.0000000000e+00
 82         0.0000000000e+00
 83         4.2526541252e-01
 84        -3.9449926341e-01
 85         0.0000000000e+00
 86         0.0000000000e+00
 87         0.0000000000e+00
 88         0.0000000000e+00
 89         0.0000000000e+00
 90        -2.5447653602e-02
 91         0.0000000000e+00
 92         0.0000000000e+00
 93         2.2344220478e-01
 94         0.0000000000e+00
 95         0.0000000000e+00
 96         4.9304726670e-02
 97         0.0000000000e+00
 98         0.0000000000e+00
 99         0.0000000000e+00
100        -2.1534493183e-02
101         0.0000000000e+00
102         0.0000000000e+00
103        -5.1733924101e-02
104         0.0000000000e+00
105         8.0872257437e-02
106         0.0000000000e+00
107         0.0000000000e+00
108         1.5763552442e-01
109         0.0000000000e+00
110         3.7626855860e-01
111         0.0000000000e+00
112         0.0000000000e+00
113        -4.2526541252e-01
114        -3.9449926341e-01
115         0.0000000000e+00
 Sym= A1
 Ene=         5.6701960650e+00
 Spin= Beta
 Occup=         0.0000000000e+00
  1         1.0139650365e-01
  2         2.0653906729e-01
  3         9.5628829533e-01
  4        -2.3148458935e+00
  5        -1.2529549940e+00
  6         0.0000000000e+00
  7         0.0000000000e+00
  8        -4.7738130584e-03
  9         0.0000000000e+00
 10         0.0000000000e+00
 11        -4.0381140646e-02
 12         0.0000000000e+00
 13         0.0000000000e+00
 14         1.1242991243e+00
 15         0.0000000000e+00
 16         0.0000000000e+00
 17         1.7981985004e-01
 18         7.9248609075e-03
 19         0.0000000000e+00
 20         0.0000000000e+00
 21        -2.8932679904e-03
 22         0.0000000000e+00
 23        -1.0012272917e-01
 24         0.0000000000e+00
 25         0.0000000000e+00
 26         2.4497625763e-01
 27         0.0000000000e+00
 28         2.1913556747e-01
 29         0.0000000000e+00
 30         0.0000000000e+00
 31         6.6421945092e-01
 32         0.0000000000e+00
 33        -1.3971829322e-02
 34         0.0000000000e+00
 35         0.0000000000e+00
 36        -1.0175931580e-02
 37         0.0000000000e+00
 38         0.0000000000e+00
 39         0.0000000000e+00
 40        -1.1036213294e-01
 41         0.0000000000e+00
 42         0.0000000000e+00
 43        -5.8355004713e-01
 44         0.0000000000e+00
 45         0.0000000000e+00
 46         0.0000000000e+00
 47         8.3517519159e-02
 48         0.0000000000e+00
 49         0.0000000000e+00
 50        -2.0649965974e-02
 51         0.0000000000e+00
 52         0.0000000000e+00
 53         0.0000000000e+00
 54        -3.5910834931e-02
 55         0.0000000000e+00
 56         5.8056041880e-02
 57         7.5683753901e-01
 58         9.8908909650e-01
 59        -3.5119779385e-02
 60         0.0000000000e+00
 61         1.7343152687e-01
 62        -5.6238666444e-02
 63         0.0000000000e+00
 64        -6.8095266462e-01
 65         5.3303341423e-01
 66         0.0000000000e+00
 67        -1.7744637103e-01
 68         2.6673384594e-01
 69         7.2320022604e-03
 70         0.0000000000e+00
 71        -3.6857533796e-02
 72        -2.8064424431e-02
 73         0.0000000000e+00
 74         8.4707994513e-02
 75         0.0000000000e+00
 76        -2.1931818716e-01
 77        -1.0676699569e-01
 78         0.0000000000e+00
 79        -2.4443055828e-01
 80         0.0000000000e+00
 81        -2.1961389704e-01
 82         3.9709820215e-01
 83         0.0000000000e+00
 84         0.0000000000e+00
 85         4.3307039951e-01
 86         5.8056041880e-02
 87         7.5683753901e-01
 88         9.8908909650e-01
 89        -3.5119779385e-02
 90         0.0000000000e+00
 91        -1.7343152687e-01
 92        -5.6238666444e-02
 93         0.0000000000e+00
 94         6.8095266462e-01
 95         5.3303341423e-01
 96         0.0000000000e+00
 97         1.7744637103e-01
 98         2.6673384594e-01
 99         7.2320022604e-03
100         0.0000000000e+00
101         3.6857533796e-02
102        -2.8064424431e-02
103         0.0000000000e+00
104         8.4707994513e-02
105         0.0000000000e+00
106         2.1931818716e-01
107        -1.0676699569e-01
108         0.0000000000e+00
109        -2.4443055828e-01
110         0.0000000000e+00
111         2.1961389704e-01
112         3.9709820215e-01
113         0.0000000000e+00
114         0.0000000000e+00
115        -4.3307039951e-01
 Sym= A2
 Ene=         5.7873626148e+00
 Spin= Beta
 Occup=         0.0000000000e+00
  1         0.0000000000e+00
  2         0.0000000000e+00
  3         0.0000000000e+00
  4         0.0000000000e+00
  5         0.0000000000e+00
  6         0.0000000000e+00
  7         0.0000000000e+00
  8         0.0000000000e+00
  9         0.0000000000e+00
 10         0.0000000000e+00
 11         0.0000000000e+00
 12         0.0000000000e+00
 13         0.0000000000e+00
 14         0.0000000000e+00
 15         0.0000000000e+00
 16         0.0000000000e+00
 17         0.0000000000e+00
 18         0.0000000000e+00
 19         0.0000000000e+00
 20         0.0000000000e+00
 21         0.0000000000e+00
 22         9.7523090124e-04
 23         0.0000000000e+00
 24         0.0000000000e+00
 25         0.0000000000e+00
 26         0.0000000000e+00
 27        -7.8419894456e-04
 28         0.0000000000e+00
 29         0.0000000000e+00
 30         0.0000000000e+00
 31         0.0000000000e+00
 32         3.9356156341e-01
 33         0.0000000000e+00
 34         0.0000000000e+00
 35         0.0000000000e+00
 36         0.0000000000e+00
 37        -7.3955849679e-04
 38         0.0000000000e+00
 39         0.0000000000e+00
 40         0.0000000000e+00
 41         0.0000000000e+00
 42         0.0000000000e+00
 43         0.0000000000e+00
 44        -4.5665132871e-01
 45         0.0000000000e+00
 46         0.0000000000e+00
 47         0.0000000000e+00
 48         0.0000000000e+00
 49         0.0000000000e+00
 50         0.0000000000e+00
 51        -1.2101864218e-02
 52         0.0000000000e+00
 53         0.0000000000e+00
 54         0.0000000000e+00
 55        -6.1586350426e-02
 56         0.0000000000e+00
 57         0.0000000000e+00
 58         0.0000000000e+00
 59         0.0000000000e+00
 60         3.0475867365e-02
 61         0.0000000000e+00
 62         0.0000000000e+00
 63        -2.9491235131e-01
 64         0.0000000000e+00
 65         0.0000000000e+00
 66        -9.0208988301e-02
 67         0.0000000000e+00
 68         0.0000000000e+00
 69         0.0000000000e+00
 70         1.4635728215e-02
 71         0.0000000000e+00
 72         0.0000000000e+00
 73        -5.6790609737e-02
 74         0.0000000000e+00
 75        -1.4046404118e-01
 76         0.0000000000e+00
 77         0.0000000000e+00
 78         1.9511757536e-01
 79         0.0000000000e+00
 80         5.3528505376e-01
 81         0.0000000000e+00
 82         0.0000000000e+00
 83         3.7299209215e-01
 84        -2.6039334641e-01
 85         0.0000000000e+00
 86         0.0000000000e+00
 87         0.0000000000e+00
 88         0.0000000000e+00
 89         0.0000000000e+00
 90        -3.0475867365e-02
 91         0.0000000000e+00
 92         0.0000000000e+00
 93         2.9491235131e-01
 94         0.0000000000e+00
 95         0.0000000000e+00
 96         9.0208988301e-02
 97         0.0000000000e+00
 98         0.0000000000e+00
 99         0.0000000000e+00
100        -1.4635728215e-02
101         0.0000000000e+00
102         0.0000000000e+00
103        -5.6790609737e-02
104         0.0000000000e+00
105         1.4046404118e-01
106         0.0000000000e+00
107         0.0000000000e+00
108         1.9511757536e-01
109         0.0000000000e+00
110        -5.3528505376e-01
111         0.0000000000e+00
112         0.0000000000e+00
113         3.7299209215e-01
114         2.6039334641e-01
115         0.0000000000e+00
 Sym= B2
 Ene=         5.7935010102e+00
 Spin= Beta
 Occup=         0.0000000000e+00
  1         0.0000000000e+00
  2         0.0000000000e+00
  3         0.0000000000e+00
  4         0.0000000000e+00
  5         0.0000000000e+00
  6         0.0000000000e+00
  7         3.8573580869e-02
  8         0.0000000000e+00
  9         0.0000000000e+00
 10         1.1251347572e-01
 11         0.0000000000e+00
 12         0.0000000000e+00
 13        -7.4213089780e-01
 14         0.0000000000e+00
 15         0.0000000000e+00
 16        -1.7779510910e-01
 17         0.0000000000e+00
 18         0.0000000000e+00
 19         0.0000000000e+00
 20        -7.7340510060e-04
 21         0.0000000000e+00
 22         0.0000000000e+00
 23         0.0000000000e+00
 24         0.0000000000e+00
 25         1.4050734011e-01
 26         0.0000000000e+00
 27         0.0000000000e+00
 28         0.0000000000e+00
 29         0.0000000000e+00
 30         4.4799923082e-01
 31         0.0000000000e+00
 32         0.0000000000e+00
 33         0.0000000000e+00
 34         0.0000000000e+00
 35        -6.3515857153e-03
 36         0.0000000000e+00
 37         0.0000000000e+00
 38         0.0000000000e+00
 39         8.0691686293e-03
 40         0.0000000000e+00
 41         0.0000000000e+00
 42        -2.4486663440e-01
 43         0.0000000000e+00
 44         0.0000000000e+00
 45         0.0000000000e+00
 46         2.1536116483e-01
 47         0.0000000000e+00
 48         0.0000000000e+00
 49         2.0166913829e-02
 50         0.0000000000e+00
 51         0.0000000000e+00
 52         0.0000000000e+00
 53        -3.1002334679e-02
 54         0.0000000000e+00
 55         0.0000000000e+00
 56         3.7828077086e-02
 57         4.4435155935e-01
 58         2.7339919452e-01
 59        -4.5005304276e-02
 60         0.0000000000e+00
 61         1.1779953474e-01
 62        -3.6503774969e-02
 63         0.0000000000e+00
 64        -4.0779361706e-01
 65         1.5456947962e-01
 66         0.0000000000e+00
 67         5.7069753808e-02
 68         4.0232817896e-02
 69        -7.4608044125e-03
 70         0.0000000000e+00
 71        -3.9511654890e-02
 72         2.9121816631e-02
 73         0.0000000000e+00
 74        -1.9395277284e-02
 75         0.0000000000e+00
 76        -2.7539203473e-02
 77        -3.6880609717e-02
 78         0.0000000000e+00
 79         2.4388354741e-01
 80         0.0000000000e+00
 81         3.3191524826e-01
 82        -4.5891558871e-01
 83         0.0000000000e+00
 84         0.0000000000e+00
 85        -3.4012907464e-01
 86        -3.7828077086e-02
 87        -4.4435155935e-01
 88        -2.7339919452e-01
 89         4.5005304276e-02
 90         0.0000000000e+00
 91         1.1779953474e-01
 92         3.6503774969e-02
 93         0.0000000000e+00
 94        -4.0779361706e-01
 95        -1.5456947962e-01
 96         0.0000000000e+00
 97         5.7069753808e-02
 98        -4.0232817896e-02
 99         7.4608044125e-03
100         0.0000000000e+00
101        -3.9511654890e-02
102        -2.9121816631e-02
103         0.0000000000e+00
104         1.9395277284e-02
105         0.0000000000e+00
106        -2.7539203473e-02
107         3.6880609717e-02
108         0.0000000000e+00
109        -2.4388354741e-01
110         0.0000000000e+00
111         3.3191524826e-01
112         4.5891558871e-01
113         0.0000000000e+00
114         0.0000000000e+00
115        -3.4012907464e-01
 Sym= A2
 Ene=         6.0383409255e+00
 Spin= Beta
 Occup=         0.0000000000e+00
  1         0.0000000000e+00
  2         0.0000000000e+00
  3         0.0000000000e+00
  4         0.0000000000e+00
  5         0.0000000000e+00
  6         0.0000000000e+00
  7         0.0000000000e+00
  8         0.0000000000e+00
  9         0.0000000000e+00
 10         0.0000000000e+00
 11         0.0000000000e+00
 12         0.0000000000e+00
 13         0.0000000000e+00
 14         0.0000000000e+00
 15         0.0000000000e+00
 16         0.0000000000e+00
 17         0.0000000000e+00
 18         0.0000000000e+00
 19         0.0000000000e+00
 20         0.0000000000e+00
 21         0.0000000000e+00
 22         1.3246082776e-02
 23         0.0000000000e+00
 24         0.0000000000e+00
 25         0.0000000000e+00
 26         0.0000000000e+00
 27         7.4548445469e-02
 28         0.0000000000e+00
 29         0.0000000000e+00
 30         0.0000000000e+00
 31         0.0000000000e+00
 32         1.5887689811e-03
 33         0.0000000000e+00
 34         0.0000000000e+00
 35         0.0000000000e+00
 36         0.0000000000e+00
 37        -3.7073116680e-02
 38         0.0000000000e+00
 39         0.0000000000e+00
 40         0.0000000000e+00
 41         0.0000000000e+00
 42         0.0000000000e+00
 43         0.0000000000e+00
 44         2.6295894034e-01
 45         0.0000000000e+00
 46         0.0000000000e+00
 47         0.0000000000e+00
 48         0.0000000000e+00
 49         0.0000000000e+00
 50         0.0000000000e+00
 51         9.7690728425e-02
 52         0.0000000000e+00
 53         0.0000000000e+00
 54         0.0000000000e+00
 55         5.1992042651e-02
 56         0.0000000000e+00
 57         0.0000000000e+00
 58         0.0000000000e+00
 59         0.0000000000e+00
 60         2.2670681306e-02
 61         0.0000000000e+00
 62         0.0000000000e+00
 63         4.4636989895e-02
 64         0.0000000000e+00
 65         0.0000000000e+00
 66         3.7518466507e-02
 67         0.0000000000e+00
 68         0.0000000000e+00
 69         0.0000000000e+00
 70        -7.0871248702e-02
 71         0.0000000000e+00
 72         0.0000000000e+00
 73        -1.0306086774e-01
 74         0.0000000000e+00
 75        -4.0933046560e-03
 76         0.0000000000e+00
 77         0.0000000000e+00
 78        -7.3277026710e-02
 79         0.0000000000e+00
 80        -4.1785283007e-01
 81         0.0000000000e+00
 82         0.0000000000e+00
 83         2.5396033759e-01
 84        -4.9525725714e-01
 85         0.0000000000e+00
 86         0.0000000000e+00
 87         0.0000000000e+00
 88         0.0000000000e+00
 89         0.0000000000e+00
 90        -2.2670681306e-02
 91         0.0000000000e+00
 92         0.0000000000e+00
 93        -4.4636989895e-02
 94         0.0000000000e+00
 95         0.0000000000e+00
 96        -3.7518466507e-02
 97         0.0000000000e+00
 98         0.0000000000e+00
 99         0.0000000000e+00
100         7.0871248702e-02
101         0.0000000000e+00
102         0.0000000000e+00
103        -1.0306086774e-01
104         0.0000000000e+00
105         4.0933046560e-03
106         0.0000000000e+00
107         0.0000000000e+00
108        -7.3277026710e-02
109         0.0000000000e+00
110         4.1785283007e-01
111         0.0000000000e+00
112         0.0000000000e+00
113         2.5396033759e-01
114         4.9525725714e-01
115         0.0000000000e+00
 Sym= A1
 Ene=         6.3712947374e+00
 Spin= Beta
 Occup=         0.0000000000e+00
  1         7.2527926776e-02
  2         1.4051702326e-01
  3         6.9421741328e-01
  4        -1.7819320016e+00
  5        -1.2053557184e+00
  6         0.0000000000e+00
  7         0.0000000000e+00
  8         5.2964662436e-02
  9         0.0000000000e+00
 10         0.0000000000e+00
 11         2.4307134804e-02
 12         0.0000000000e+00
 13         0.0000000000e+00
 14         2.9804296537e-01
 15         0.0000000000e+00
 16         0.0000000000e+00
 17        -1.9808117904e-02
 18         9.5726300623e-03
 19         0.0000000000e+00
 20         0.0000000000e+00
 21        -2.0555706514e-02
 22         0.0000000000e+00
 23         1.2231631815e-01
 24         0.0000000000e+00
 25         0.0000000000e+00
 26         4.0735863724e-02
 27         0.0000000000e+00
 28         1.0318283615e+00
 29         0.0000000000e+00
 30         0.0000000000e+00
 31         6.9710727488e-01
 32         0.0000000000e+00
 33         3.4712911857e-02
 34         0.0000000000e+00
 35         0.0000000000e+00
 36        -8.2557120974e-04
 37         0.0000000000e+00
 38         0.0000000000e+00
 39         0.0000000000e+00
 40        -9.6632547729e-01
 41         0.0000000000e+00
 42         0.0000000000e+00
 43        -3.1443688917e-01
 44         0.0000000000e+00
 45         0.0000000000e+00
 46         0.0000000000e+00
 47        -7.8403777842e-02
 48         0.0000000000e+00
 49         0.0000000000e+00
 50         2.0121159174e-02
 51         0.0000000000e+00
 52         0.0000000000e+00
 53         0.0000000000e+00
 54        -1.1488006252e-01
 55         0.0000000000e+00
 56        -3.4468679129e-02
 57         6.5306469287e-01
 58         7.9438346880e-01
 59         2.2995143061e-02
 60         0.0000000000e+00
 61         1.0595823879e-02
 62        -4.9610151900e-02
 63         0.0000000000e+00
 64        -1.3701859550e-01
 65         7.2330747533e-01
 66         0.0000000000e+00
 67        -1.4100903140e-01
 68         4.6813906995e-01
 69        -9.9860504359e-02
 70         0.0000000000e+00
 71        -8.8091018820e-04
 72        -8.4118196560e-02
 73         0.0000000000e+00
 74         2.4850851359e-01
 75         0.0000000000e+00
 76        -4.1988077536e-01
 77         2.5130036218e-01
 78         0.0000000000e+00
 79        -6.0382299755e-01
 80         0.0000000000e+00
 81        -8.9299647939e-02
 82         2.5186947297e-02
 83         0.0000000000e+00
 84         0.0000000000e+00
 85        -4.5472515880e-01
 86        -3.4468679129e-02
 87         6.5306469287e-01
 88         7.9438346880e-01
 89         2.2995143061e-02
 90         0.0000000000e+00
 91        -1.0595823879e-02
 92        -4.9610151900e-02
 93         0.0000000000e+00
 94         1.3701859550e-01
 95         7.2330747533e-01
 96         0.0000000000e+00
 97         1.4100903140e-01
 98         4.6813906995e-01
 99        -9.9860504359e-02
100         0.0000000000e+00
101         8.8091018820e-04
102        -8.4118196560e-02
103         0.0000000000e+00
104         2.4850851359e-01
105         0.0000000000e+00
106         4.1988077536e-01
107         2.5130036218e-01
108         0.0000000000e+00
109        -6.0382299755e-01
110         0.0000000000e+00
111         8.9299647939e-02
112         2.5186947297e-02
113         0.0000000000e+00
114         0.0000000000e+00
115         4.5472515880e-01
 Sym= B2
 Ene=         6.4477356001e+00
 Spin= Beta
 Occup=         0.0000000000e+00
  1         0.0000000000e+00
  2         0.0000000000e+00
  3         0.0000000000e+00
  4         0.0000000000e+00
  5         0.0000000000e+00
  6         0.0000000000e+00
  7         8.8205619136e-03
  8         0.0000000000e+00
  9         0.0000000000e+00
 10        -7.3754108694e-02
 11         0.0000000000e+00
 12         0.0000000000e+00
 13         1.3546253543e-01
 14         0.0000000000e+00
 15         0.0000000000e+00
 16         4.3534094739e-01
 17         0.0000000000e+00
 18         0.0000000000e+00
 19         0.0000000000e+00
 20        -1.7375916182e-02
 21         0.0000000000e+00
 22         0.0000000000e+00
 23         0.0000000000e+00
 24         0.0000000000e+00
 25         9.0136831304e-02
 26         0.0000000000e+00
 27         0.0000000000e+00
 28         0.0000000000e+00
 29         0.0000000000e+00
 30        -4.5970148951e-01
 31         0.0000000000e+00
 32         0.0000000000e+00
 33         0.0000000000e+00
 34         0.0000000000e+00
 35         6.4149346391e-02
 36         0.0000000000e+00
 37         0.0000000000e+00
 38         0.0000000000e+00
 39        -1.7987005930e-02
 40         0.0000000000e+00
 41         0.0000000000e+00
 42         1.0100048932e-01
 43         0.0000000000e+00
 44         0.0000000000e+00
 45         0.0000000000e+00
 46         5.1147676603e-01
 47         0.0000000000e+00
 48         0.0000000000e+00
 49        -1.1388890931e-01
 50         0.0000000000e+00
 51         0.0000000000e+00
 52         0.0000000000e+00
 53         7.2904842398e-02
 54         0.0000000000e+00
 55         0.0000000000e+00
 56        -3.0055758114e-02
 57         3.3337518989e-02
 58        -5.6595476383e-01
 59        -3.0138581340e-02
 60         0.0000000000e+00
 61        -1.9176099352e-01
 62        -1.4829570593e-01
 63         0.0000000000e+00
 64         2.7366556177e-01
 65         3.0463894245e-01
 66         0.0000000000e+00
 67         7.2531473954e-02
 68        -2.0874900072e-01
 69        -9.9610388796e-02
 70         0.0000000000e+00
 71         1.1454450159e-01
 72        -1.5791143633e-01
 73         0.0000000000e+00
 74         2.2173898536e-01
 75         0.0000000000e+00
 76         9.6234787941e-04
 77        -3.4380187025e-02
 78         0.0000000000e+00
 79         4.4538062166e-01
 80         0.0000000000e+00
 81         1.3042717370e-01
 82        -1.0033045264e-01
 83         0.0000000000e+00
 84         0.0000000000e+00
 85         4.9240297746e-01
 86         3.0055758114e-02
 87        -3.3337518989e-02
 88         5.6595476383e-01
 89         3.0138581340e-02
 90         0.0000000000e+00
 91        -1.9176099352e-01
 92         1.4829570593e-01
 93         0.0000000000e+00
 94         2.7366556177e-01
 95        -3.0463894245e-01
 96         0.0000000000e+00
 97         7.2531473954e-02
 98         2.0874900072e-01
 99         9.9610388796e-02
100         0.0000000000e+00
101         1.1454450159e-01
102         1.5791143633e-01
103         0.0000000000e+00
104        -2.2173898536e-01
105         0.0000000000e+00
106         9.6234787941e-04
107         3.4380187025e-02
108         0.0000000000e+00
109        -4.4538062166e-01
110         0.0000000000e+00
111         1.3042717370e-01
112         1.0033045264e-01
113         0.0000000000e+00
114         0.0000000000e+00
115         4.9240297746e-01
 Sym= B2
 Ene=         6.7203658472e+00
 Spin= Beta
 Occup=         0.0000000000e+00
  1         0.0000000000e+00
  2         0.0000000000e+00
  3         0.0000000000e+00
  4         0.0000000000e+00
  5         0.0000000000e+00
  6         0.0000000000e+00
  7         2.4894674312e-01
  8         0.0000000000e+00
  9         0.0000000000e+00
 10         6.4408507367e-01
 11         0.0000000000e+00
 12         0.0000000000e+00
 13        -5.4978836848e-01
 14         0.0000000000e+00
 15         0.0000000000e+00
 16        -4.6180477751e-02
 17         0.0000000000e+00
 18         0.0000000000e+00
 19         0.0000000000e+00
 20         1.0743092821e-01
 21         0.0000000000e+00
 22         0.0000000000e+00
 23         0.0000000000e+00
 24         0.0000000000e+00
 25        -1.7598151129e-01
 26         0.0000000000e+00
 27         0.0000000000e+00
 28         0.0000000000e+00
 29         0.0000000000e+00
 30         9.6965343784e-01
 31         0.0000000000e+00
 32         0.0000000000e+00
 33         0.0000000000e+00
 34         0.0000000000e+00
 35         6.5565541686e-02
 36         0.0000000000e+00
 37         0.0000000000e+00
 38         0.0000000000e+00
 39         2.2698029018e-02
 40         0.0000000000e+00
 41         0.0000000000e+00
 42        -5.2242663808e-01
 43         0.0000000000e+00
 44         0.0000000000e+00
 45         0.0000000000e+00
 46        -2.4385113058e-01
 47         0.0000000000e+00
 48         0.0000000000e+00
 49         4.8147220779e-02
 50         0.0000000000e+00
 51         0.0000000000e+00
 52         0.0000000000e+00
 53        -1.6923508839e-02
 54         0.0000000000e+00
 55         0.0000000000e+00
 56        -8.9207271573e-02
 57         6.6566793446e-01
 58        -3.9283557163e-02
 59        -4.9542972304e-02
 60         0.0000000000e+00
 61         1.1292915823e-01
 62        -3.4912936737e-01
 63         0.0000000000e+00
 64        -3.6898408241e-01
 65         1.8121323295e-01
 66         0.0000000000e+00
 67         6.4541433269e-02
 68        -4.2531397289e-01
 69        -8.1103486432e-02
 70         0.0000000000e+00
 71         1.2396083276e-01
 72         5.0177057624e-03
 73         0.0000000000e+00
 74        -3.4279979805e-01
 75         0.0000000000e+00
 76         2.9829493670e-01
 77         5.4330357743e-02
 78         0.0000000000e+00
 79         2.2719332894e-03
 80         0.0000000000e+00
 81         5.1469211634e-01
 82         5.4620124986e-01
 83         0.0000000000e+00
 84         0.0000000000e+00
 85        -1.7537719125e-01
 86         8.9207271573e-02
 87        -6.6566793446e-01
 88         3.9283557163e-02
 89         4.9542972304e-02
 90         0.0000000000e+00
 91         1.1292915823e-01
 92         3.4912936737e-01
 93         0.0000000000e+00
 94        -3.6898408241e-01
 95        -1.8121323295e-01
 96         0.0000000000e+00
 97         6.4541433269e-02
 98         4.2531397289e-01
 99         8.1103486432e-02
100         0.0000000000e+00
101         1.2396083276e-01
102        -5.0177057624e-03
103         0.0000000000e+00
104         3.4279979805e-01
105         0.0000000000e+00
106         2.9829493670e-01
107        -5.4330357743e-02
108         0.0000000000e+00
109        -2.2719332894e-03
110         0.0000000000e+00
111         5.1469211634e-01
112        -5.4620124986e-01
113         0.0000000000e+00
114         0.0000000000e+00
115        -1.7537719125e-01
 Sym= B1
 Ene=         6.8749597326e+00
 Spin= Beta
 Occup=         0.0000000000e+00
  1         0.0000000000e+00
  2         0.0000000000e+00
  3         0.0000000000e+00
  4         0.0000000000e+00
  5         0.0000000000e+00
  6         1.4675199367e-01
  7         0.0000000000e+00
  8         0.0000000000e+00
  9        -1.3893952686e-01
 10         0.0000000000e+00
 11         0.0000000000e+00
 12         9.1435009922e-01
 13         0.0000000000e+00
 14         0.0000000000e+00
 15         2.2285299302e-01
 16         0.0000000000e+00
 17         0.0000000000e+00
 18         0.0000000000e+00
 19        -4.2612401860e-03
 20         0.0000000000e+00
 21         0.0000000000e+00
 22         0.0000000000e+00
 23         0.0000000000e+00
 24        -4.7920440734e-01
 25         0.0000000000e+00
 26         0.0000000000e+00
 27         0.0000000000e+00
 28         0.0000000000e+00
 29        -4.9035797562e-01
 30         0.0000000000e+00
 31         0.0000000000e+00
 32         0.0000000000e+00
 33         0.0000000000e+00
 34        -4.2110097688e-02
 35         0.0000000000e+00
 36         0.0000000000e+00
 37         0.0000000000e+00
 38         4.9187149975e-02
 39         0.0000000000e+00
 40         0.0000000000e+00
 41         5.2027143366e-01
 42         0.0000000000e+00
 43         0.0000000000e+00
 44         0.0000000000e+00
 45        -3.6455134620e-02
 46         0.0000000000e+00
 47         0.0000000000e+00
 48         1.0472629935e-01
 49         0.0000000000e+00
 50         0.0000000000e+00
 51         0.0000000000e+00
 52        -3.8798241336e-02
 53         0.0000000000e+00
 54         0.0000000000e+00
 55         0.0000000000e+00
 56         0.0000000000e+00
 57         0.0000000000e+00
 58         0.0000000000e+00
 59         0.0000000000e+00
 60        -5.3759281920e-01
 61         0.0000000000e+00
 62         0.0000000000e+00
 63         2.4893717008e-01
 64         0.0000000000e+00
 65         0.0000000000e+00
 66        -5.0646934163e-01
 67         0.0000000000e+00
 68         0.0000000000e+00
 69         0.0000000000e+00
 70        -6.8961355152e-02
 71         0.0000000000e+00
 72         0.0000000000e+00
 73         4.8182961466e-02
 74         0.0000000000e+00
 75        -7.1865774491e-02
 76         0.0000000000e+00
 77         0.0000000000e+00
 78         4.6767697823e-01
 79         0.0000000000e+00
 80         3.2011438665e-01
 81         0.0000000000e+00
 82         0.0000000000e+00
 83         2.1871604626e-01
 84         5.9629991770e-01
 85         0.0000000000e+00
 86         0.0000000000e+00
 87         0.0000000000e+00
 88         0.0000000000e+00
 89         0.0000000000e+00
 90        -5.3759281920e-01
 91         0.0000000000e+00
 92         0.0000000000e+00
 93         2.4893717008e-01
 94         0.0000000000e+00
 95         0.0000000000e+00
 96        -5.0646934163e-01
 97         0.0000000000e+00
 98         0.0000000000e+00
 99         0.0000000000e+00
100        -6.8961355152e-02
101         0.0000000000e+00
102         0.0000000000e+00
103        -4.8182961466e-02
104         0.0000000000e+00
105        -7.1865774491e-02
106         0.0000000000e+00
107         0.0000000000e+00
108        -4.6767697823e-01
109         0.0000000000e+00
110         3.2011438665e-01
111         0.0000000000e+00
112         0.0000000000e+00
113        -2.1871604626e-01
114         5.9629991770e-01
115         0.0000000000e+00
 Sym= B1
 Ene=         6.8842285532e+00
 Spin= Beta
 Occup=         0.0000000000e+00
  1         0.0000000000e+00
  2         0.0000000000e+00
  3         0.0000000000e+00
  4         0.0000000000e+00
  5         0.0000000000e+00
  6         1.2844478317e-01
  7         0.0000000000e+00
  8         0.0000000000e+00
  9        -1.3685803820e-01
 10         0.0000000000e+00
 11         0.0000000000e+00
 12         9.6368951805e-01
 13         0.0000000000e+00
 14         0.0000000000e+00
 15         1.0136202666e-01
 16         0.0000000000e+00
 17         0.0000000000e+00
 18         0.0000000000e+00
 19         3.0368552293e-02
 20         0.0000000000e+00
 21         0.0000000000e+00
 22         0.0000000000e+00
 23         0.0000000000e+00
 24        -2.5624147630e-01
 25         0.0000000000e+00
 26         0.0000000000e+00
 27         0.0000000000e+00
 28         0.0000000000e+00
 29         2.0828226565e-03
 30         0.0000000000e+00
 31         0.0000000000e+00
 32         0.0000000000e+00
 33         0.0000000000e+00
 34         1.8164449449e-02
 35         0.0000000000e+00
 36         0.0000000000e+00
 37         0.0000000000e+00
 38         8.0742900961e-02
 39         0.0000000000e+00
 40         0.0000000000e+00
 41        -4.5977025628e-01
 42         0.0000000000e+00
 43         0.0000000000e+00
 44         0.0000000000e+00
 45        -8.3923809069e-01
 46         0.0000000000e+00
 47         0.0000000000e+00
 48        -1.3142496733e-01
 49         0.0000000000e+00
 50         0.0000000000e+00
 51         0.0000000000e+00
 52         2.0724050784e-03
 53         0.0000000000e+00
 54         0.0000000000e+00
 55         0.0000000000e+00
 56         0.0000000000e+00
 57         0.0000000000e+00
 58         0.0000000000e+00
 59         0.0000000000e+00
 60        -3.7135021675e-01
 61         0.0000000000e+00
 62         0.0000000000e+00
 63         3.2484178569e-02
 64         0.0000000000e+00
 65         0.0000000000e+00
 66        -3.5356377307e-01
 67         0.0000000000e+00
 68         0.0000000000e+00
 69         0.0000000000e+00
 70        -5.7172791074e-02
 71         0.0000000000e+00
 72         0.0000000000e+00
 73         1.8686005549e-02
 74         0.0000000000e+00
 75        -4.9523541282e-01
 76         0.0000000000e+00
 77         0.0000000000e+00
 78         2.0197610197e-01
 79         0.0000000000e+00
 80        -6.4933619684e-01
 81         0.0000000000e+00
 82         0.0000000000e+00
 83         4.9261476979e-01
 84        -2.3644455845e-02
 85         0.0000000000e+00
 86         0.0000000000e+00
 87         0.0000000000e+00
 88         0.0000000000e+00
 89         0.0000000000e+00
 90        -3.7135021675e-01
 91         0.0000000000e+00
 92         0.0000000000e+00
 93         3.2484178569e-02
 94         0.0000000000e+00
 95         0.0000000000e+00
 96        -3.5356377307e-01
 97         0.0000000000e+00
 98         0.0000000000e+00
 99         0.0000000000e+00
100        -5.7172791074e-02
101         0.0000000000e+00
102         0.0000000000e+00
103        -1.8686005549e-02
104         0.0000000000e+00
105        -4.9523541282e-01
106         0.0000000000e+00
107         0.0000000000e+00
108        -2.0197610197e-01
109         0.0000000000e+00
110        -6.4933619684e-01
111         0.0000000000e+00
112         0.0000000000e+00
113        -4.9261476979e-01
114        -2.3644455845e-02
115         0.0000000000e+00
 Sym= A1
 Ene=         6.9734264473e+00
 Spin= Beta
 Occup=         0.0000000000e+00
  1         1.8803904718e-01
  2         4.5570793275e-01
  3         1.2730598554e+00
  4        -4.7567335359e-01
  5         5.3236314183e-01
  6         0.0000000000e+00
  7         0.0000000000e+00
  8        -2.3347321400e-01
  9         0.0000000000e+00
 10         0.0000000000e+00
 11        -3.0245874145e-01
 12         0.0000000000e+00
 13         0.0000000000e+00
 14         1.7204875256e-01
 15         0.0000000000e+00
 16         0.0000000000e+00
 17         6.5499643737e-03
 18        -6.6180045047e-03
 19         0.0000000000e+00
 20         0.0000000000e+00
 21         6.9349850510e-02
 22         0.0000000000e+00
 23         3.0282418746e-01
 24         0.0000000000e+00
 25         0.0000000000e+00
 26        -1.1540239476e-01
 27         0.0000000000e+00
 28        -2.0286791136e-01
 29         0.0000000000e+00
 30         0.0000000000e+00
 31         2.0234263097e-01
 32         0.0000000000e+00
 33         1.7941181009e-02
 34         0.0000000000e+00
 35         0.0000000000e+00
 36        -2.7633583947e-02
 37         0.0000000000e+00
 38         0.0000000000e+00
 39         0.0000000000e+00
 40         5.4497297217e-02
 41         0.0000000000e+00
 42         0.0000000000e+00
 43         1.1033468064e-01
 44         0.0000000000e+00
 45         0.0000000000e+00
 46         0.0000000000e+00
 47        -1.4197516133e-03
 48         0.0000000000e+00
 49         0.0000000000e+00
 50         2.4233665323e-02
 51         0.0000000000e+00
 52         0.0000000000e+00
 53         0.0000000000e+00
 54        -5.0180910718e-02
 55         0.0000000000e+00
 56         3.9719418710e-02
 57         1.3460495992e-01
 58        -2.1882566556e-01
 59        -9.9526650137e-02
 60         0.0000000000e+00
 61         5.0449467885e-01
 62        -2.1580023288e-01
 63         0.0000000000e+00
 64        -5.2068129669e-01
 65         1.8424671909e-01
 66         0.0000000000e+00
 67         4.3398512615e-01
 68        -2.7110307269e-01
 69         4.2149318736e-02
 70         0.0000000000e+00
 71        -4.9457641677e-03
 72         1.1602329644e-01
 73         0.0000000000e+00
 74         4.6735169536e-02
 75         0.0000000000e+00
 76         2.6497413706e-01
 77         1.3764140191e-01
 78         0.0000000000e+00
 79         3.5308864807e-01
 80         0.0000000000e+00
 81         4.9085765531e-02
 82         4.1915970357e-01
 83         0.0000000000e+00
 84         0.0000000000e+00
 85        -3.9813334269e-01
 86         3.9719418710e-02
 87         1.3460495992e-01
 88        -2.1882566556e-01
 89        -9.9526650137e-02
 90         0.0000000000e+00
 91        -5.0449467885e-01
 92        -2.1580023288e-01
 93         0.0000000000e+00
 94         5.2068129669e-01
 95         1.8424671909e-01
 96         0.0000000000e+00
 97        -4.3398512615e-01
 98        -2.7110307269e-01
 99         4.2149318736e-02
100         0.0000000000e+00
101         4.9457641677e-03
102         1.1602329644e-01
103         0.0000000000e+00
104         4.6735169536e-02
105         0.0000000000e+00
106        -2.6497413706e-01
107         1.3764140191e-01
108         0.0000000000e+00
109         3.5308864807e-01
110         0.0000000000e+00
111        -4.9085765531e-02
112         4.1915970357e-01
113         0.0000000000e+00
114         0.0000000000e+00
115         3.9813334269e-01
 Sym= A2
 Ene=         6.9981945095e+00
 Spin= Beta
 Occup=         0.0000000000e+00
  1         0.0000000000e+00
  2         0.0000000000e+00
  3         0.0000000000e+00
  4         0.0000000000e+00
  5         0.0000000000e+00
  6         0.0000000000e+00
  7         0.0000000000e+00
  8         0.0000000000e+00
  9         0.0000000000e+00
 10         0.0000000000e+00
 11         0.0000000000e+00
 12         0.0000000000e+00
 13         0.0000000000e+00
 14         0.0000000000e+00
 15         0.0000000000e+00
 16         0.0000000000e+00
 17         0.0000000000e+00
 18         0.0000000000e+00
 19         0.0000000000e+00
 20         0.0000000000e+00
 21         0.0000000000e+00
 22         1.2390398094e-02
 23         0.0000000000e+00
 24         0.0000000000e+00
 25         0.0000000000e+00
 26         0.0000000000e+00
 27        -6.7679210356e-01
 28         0.0000000000e+00
 29         0.0000000000e+00
 30         0.0000000000e+00
 31         0.0000000000e+00
 32        -4.1321915766e-01
 33         0.0000000000e+00
 34         0.0000000000e+00
 35         0.0000000000e+00
 36         0.0000000000e+00
 37        -9.3040354051e-02
 38         0.0000000000e+00
 39         0.0000000000e+00
 40         0.0000000000e+00
 41         0.0000000000e+00
 42         0.0000000000e+00
 43         0.0000000000e+00
 44         4.9034214209e-01
 45         0.0000000000e+00
 46         0.0000000000e+00
 47         0.0000000000e+00
 48         0.0000000000e+00
 49         0.0000000000e+00
 50         0.0000000000e+00
 51         3.4339213099e-02
 52         0.0000000000e+00
 53         0.0000000000e+00
 54         0.0000000000e+00
 55        -2.5684042096e-02
 56         0.0000000000e+00
 57         0.0000000000e+00
 58         0.0000000000e+00
 59         0.0000000000e+00
 60         7.5586654474e-01
 61         0.0000000000e+00
 62         0.0000000000e+00
 63        -3.6658615061e-01
 64         0.0000000000e+00
 65         0.0000000000e+00
 66         5.5185142925e-01
 67         0.0000000000e+00
 68         0.0000000000e+00
 69         0.0000000000e+00
 70        -3.2830256133e-02
 71         0.0000000000e+00
 72         0.0000000000e+00
 73        -3.1572302121e-02
 74         0.0000000000e+00
 75         3.3360179785e-01
 76         0.0000000000e+00
 77         0.0000000000e+00
 78        -4.4863942900e-01
 79         0.0000000000e+00
 80         1.1254164374e-01
 81         0.0000000000e+00
 82         0.0000000000e+00
 83        -5.0925997469e-01
 84        -3.5174395929e-01
 85         0.0000000000e+00
 86         0.0000000000e+00
 87         0.0000000000e+00
 88         0.0000000000e+00
 89         0.0000000000e+00
 90        -7.5586654474e-01
 91         0.0000000000e+00
 92         0.0000000000e+00
 93         3.6658615061e-01
 94         0.0000000000e+00
 95         0.0000000000e+00
 96        -5.5185142925e-01
 97         0.0000000000e+00
 98         0.0000000000e+00
 99         0.0000000000e+00
100         3.2830256133e-02
101         0.0000000000e+00
102         0.0000000000e+00
103        -3.1572302121e-02
104         0.0000000000e+00
105        -3.3360179785e-01
106         0.0000000000e+00
107         0.0000000000e+00
108        -4.4863942900e-01
109         0.0000000000e+00
110        -1.1254164374e-01
111         0.0000000000e+00
112         0.0000000000e+00
113        -5.0925997469e-01
114         3.5174395929e-01
115         0.0000000000e+00
 Sym= B2
 Ene=         7.0437621857e+00
 Spin= Beta
 Occup=         0.0000000000e+00
  1         0.0000000000e+00
  2         0.0000000000e+00
  3         0.0000000000e+00
  4         0.0000000000e+00
  5         0.0000000000e+00
  6         0.0000000000e+00
  7         5.1808649122e-02
  8         0.0000000000e+00
  9         0.0000000000e+00
 10         6.6620122075e-01
 11         0.0000000000e+00
 12         0.0000000000e+00
 13        -1.7381127399e+00
 14         0.0000000000e+00
 15         0.0000000000e+00
 16        -5.9293029084e-01
 17         0.0000000000e+00
 18         0.0000000000e+00
 19         0.0000000000e+00
 20         6.9871952260e-02
 21         0.0000000000e+00
 22         0.0000000000e+00
 23         0.0000000000e+00
 24         0.0000000000e+00
 25        -5.4638224458e-01
 26         0.0000000000e+00
 27         0.0000000000e+00
 28         0.0000000000e+00
 29         0.0000000000e+00
 30         2.3044664052e-01
 31         0.0000000000e+00
 32         0.0000000000e+00
 33         0.0000000000e+00
 34         0.0000000000e+00
 35        -4.9349326990e-02
 36         0.0000000000e+00
 37         0.0000000000e+00
 38         0.0000000000e+00
 39        -6.2296446734e-02
 40         0.0000000000e+00
 41         0.0000000000e+00
 42         8.0219893639e-01
 43         0.0000000000e+00
 44         0.0000000000e+00
 45         0.0000000000e+00
 46         6.6228061900e-01
 47         0.0000000000e+00
 48         0.0000000000e+00
 49        -3.2529962962e-02
 50         0.0000000000e+00
 51         0.0000000000e+00
 52         0.0000000000e+00
 53         2.8595358274e-02
 54         0.0000000000e+00
 55         0.0000000000e+00
 56        -1.0156081722e-01
 57         5.2004392725e-01
 58         2.0144125076e-01
 59         1.4846857999e-02
 60         0.0000000000e+00
 61         3.4998602361e-01
 62         4.6164267668e-01
 63         0.0000000000e+00
 64        -8.6346793247e-02
 65         5.8638430097e-02
 66         0.0000000000e+00
 67         5.3171909427e-01
 68         5.7008102136e-01
 69        -9.9690698379e-02
 70         0.0000000000e+00
 71         7.6695123781e-03
 72        -9.5325850530e-03
 73         0.0000000000e+00
 74         7.8973193512e-01
 75         0.0000000000e+00
 76        -1.8413073177e-02
 77         5.1247560519e-01
 78         0.0000000000e+00
 79         6.1546251243e-01
 80         0.0000000000e+00
 81        -3.7890193892e-01
 82         3.2382604384e-01
 83         0.0000000000e+00
 84         0.0000000000e+00
 85        -2.5197174897e-01
 86         1.0156081722e-01
 87        -5.2004392725e-01
 88        -2.0144125076e-01
 89        -1.4846857999e-02
 90         0.0000000000e+00
 91         3.4998602361e-01
 92        -4.6164267668e-01
 93         0.0000000000e+00
 94        -8.6346793247e-02
 95        -5.8638430097e-02
 96         0.0000000000e+00
 97         5.3171909427e-01
 98        -5.7008102136e-01
 99         9.9690698379e-02
100         0.0000000000e+00
101         7.6695123781e-03
102         9.5325850530e-03
103         0.0000000000e+00
104        -7.8973193512e-01
105         0.0000000000e+00
106        -1.8413073177e-02
107        -5.1247560519e-01
108         0.0000000000e+00
109        -6.1546251243e-01
110         0.0000000000e+00
111        -3.7890193892e-01
112        -3.2382604384e-01
113         0.0000000000e+00
114         0.0000000000e+00
115        -2.5197174897e-01
 Sym= A1
 Ene=         7.1439284243e+00
 Spin= Beta
 Occup=         0.0000000000e+00
  1         8.6627712208e-02
  2         1.8151388353e-01
  3         5.7896928059e-01
  4        -3.8940296212e-01
  5        -1.3323332686e+00
  6         0.0000000000e+00
  7         0.0000000000e+00
  8         8.8042741080e-02
  9         0.0000000000e+00
 10         0.0000000000e+00
 11        -2.8055102603e-01
 12         0.0000000000e+00
 13         0.0000000000e+00
 14         1.4423617374e+00
 15         0.0000000000e+00
 16         0.0000000000e+00
 17         5.0796914351e-01
 18         2.2810571781e-02
 19         0.0000000000e+00
 20         0.0000000000e+00
 21         1.3502078905e-02
 22         0.0000000000e+00
 23        -6.8311268794e-01
 24         0.0000000000e+00
 25         0.0000000000e+00
 26        -4.6906793176e-01
 27         0.0000000000e+00
 28        -3.9497829389e-01
 29         0.0000000000e+00
 30         0.0000000000e+00
 31         1.7597974680e-01
 32         0.0000000000e+00
 33        -3.6415012483e-02
 34         0.0000000000e+00
 35         0.0000000000e+00
 36        -1.4891263651e-03
 37         0.0000000000e+00
 38         0.0000000000e+00
 39         0.0000000000e+00
 40         1.4943649000e-01
 41         0.0000000000e+00
 42         0.0000000000e+00
 43        -7.5372830387e-02
 44         0.0000000000e+00
 45         0.0000000000e+00
 46         0.0000000000e+00
 47         2.6009256050e-02
 48         0.0000000000e+00
 49         0.0000000000e+00
 50         6.8617593305e-02
 51         0.0000000000e+00
 52         0.0000000000e+00
 53         0.0000000000e+00
 54         2.6941926091e-03
 55         0.0000000000e+00
 56         4.2168018054e-02
 57         1.8826916599e-01
 58         7.7069542363e-01
 59        -2.2002001375e-02
 60         0.0000000000e+00
 61        -2.3101312014e-01
 62        -6.3656838910e-01
 63         0.0000000000e+00
 64        -6.7923431237e-02
 65         4.3180184394e-01
 66         0.0000000000e+00
 67        -3.9973819041e-01
 68        -3.5071391224e-01
 69         1.0078356755e-01
 70         0.0000000000e+00
 71        -1.6188661897e-01
 72         4.2647897108e-02
 73         0.0000000000e+00
 74        -4.9522547824e-01
 75         0.0000000000e+00
 76         3.2809991208e-01
 77        -2.4164960803e-01
 78         0.0000000000e+00
 79        -1.2681550522e-01
 80         0.0000000000e+00
 81         6.6977033354e-01
 82         1.2211481687e-01
 83         0.0000000000e+00
 84         0.0000000000e+00
 85         1.5296578206e-01
 86         4.2168018054e-02
 87         1.8826916599e-01
 88         7.7069542363e-01
 89        -2.2002001375e-02
 90         0.0000000000e+00
 91         2.3101312014e-01
 92        -6.3656838910e-01
 93         0.0000000000e+00
 94         6.7923431237e-02
 95         4.3180184394e-01
 96         0.0000000000e+00
 97         3.9973819041e-01
 98        -3.5071391224e-01
 99         1.0078356755e-01
100         0.0000000000e+00
101         1.6188661897e-01
102         4.2647897108e-02
103         0.0000000000e+00
104        -4.9522547824e-01
105         0.0000000000e+00
106        -3.2809991208e-01
107        -2.4164960803e-01
108         0.0000000000e+00
109        -1.2681550522e-01
110         0.0000000000e+00
111        -6.6977033354e-01
112         1.2211481687e-01
113         0.0000000000e+00
114         0.0000000000e+00
115        -1.5296578206e-01
 Sym= B2
 Ene=         7.5591553026e+00
 Spin= Beta
 Occup=         0.0000000000e+00
  1         0.0000000000e+00
  2         0.0000000000e+00
  3         0.0000000000e+00
  4         0.0000000000e+00
  5         0.0000000000e+00
  6         0.0000000000e+00
  7         9.2669864101e-02
  8         0.0000000000e+00
  9         0.0000000000e+00
 10         3.3064812988e-01
 11         0.0000000000e+00
 12         0.0000000000e+00
 13        -5.2770551203e-01
 14         0.0000000000e+00
 15         0.0000000000e+00
 16        -6.2660657432e-01
 17         0.0000000000e+00
 18         0.0000000000e+00
 19         0.0000000000e+00
 20         1.1171641765e-01
 21         0.0000000000e+00
 22         0.0000000000e+00
 23         0.0000000000e+00
 24         0.0000000000e+00
 25         2.4559889775e-02
 26         0.0000000000e+00
 27         0.0000000000e+00
 28         0.0000000000e+00
 29         0.0000000000e+00
 30         7.6616374857e-01
 31         0.0000000000e+00
 32         0.0000000000e+00
 33         0.0000000000e+00
 34         0.0000000000e+00
 35         8.8757094379e-03
 36         0.0000000000e+00
 37         0.0000000000e+00
 38         0.0000000000e+00
 39        -7.5098891331e-02
 40         0.0000000000e+00
 41         0.0000000000e+00
 42        -4.5417798230e-01
 43         0.0000000000e+00
 44         0.0000000000e+00
 45         0.0000000000e+00
 46         1.9521573790e-02
 47         0.0000000000e+00
 48         0.0000000000e+00
 49         1.9930478507e-01
 50         0.0000000000e+00
 51         0.0000000000e+00
 52         0.0000000000e+00
 53         2.3591792286e-01
 54         0.0000000000e+00
 55         0.0000000000e+00
 56        -3.9947093859e-01
 57         8.0554158845e-01
 58         7.0011645997e-01
 59         4.1075964846e-01
 60         0.0000000000e+00
 61        -4.8253663607e-01
 62         5.5679484973e-01
 63         0.0000000000e+00
 64         1.8602694433e-01
 65        -6.6290380417e-01
 66         0.0000000000e+00
 67        -7.9621425182e-01
 68         3.2418952777e-01
 69         2.9712577115e-01
 70         0.0000000000e+00
 71         2.6963079815e-01
 72         2.6550770920e-01
 73         0.0000000000e+00
 74        -5.0149772735e-01
 75         0.0000000000e+00
 76        -3.4434044428e-02
 77        -3.7631306741e-01
 78         0.0000000000e+00
 79        -3.5622802699e-02
 80         0.0000000000e+00
 81         3.0768458630e-01
 82         5.9533405186e-02
 83         0.0000000000e+00
 84         0.0000000000e+00
 85         4.3516466554e-02
 86         3.9947093859e-01
 87        -8.0554158845e-01
 88        -7.0011645997e-01
 89        -4.1075964846e-01
 90         0.0000000000e+00
 91        -4.8253663607e-01
 92        -5.5679484973e-01
 93         0.0000000000e+00
 94         1.8602694433e-01
 95         6.6290380417e-01
 96         0.0000000000e+00
 97        -7.9621425182e-01
 98        -3.2418952777e-01
 99        -2.9712577115e-01
100         0.0000000000e+00
101         2.6963079815e-01
102        -2.6550770920e-01
103         0.0000000000e+00
104         5.0149772735e-01
105         0.0000000000e+00
106        -3.4434044428e-02
107         3.7631306741e-01
108         0.0000000000e+00
109         3.5622802699e-02
110         0.0000000000e+00
111         3.0768458630e-01
112        -5.9533405186e-02
113         0.0000000000e+00
114         0.0000000000e+00
115         4.3516466554e-02
 Sym= A1
 Ene=         7.6146413106e+00
 Spin= Beta
 Occup=         0.0000000000e+00
  1         1.4210234175e-01
  2         3.2032144426e-01
  3         1.0891595940e+00
  4        -1.7485911161e+00
  5        -2.6190473926e+00
  6         0.0000000000e+00
  7         0.0000000000e+00
  8        -9.5754761765e-02
  9         0.0000000000e+00
 10         0.0000000000e+00
 11        -2.0999777103e-01
 12         0.0000000000e+00
 13         0.0000000000e+00
 14         5.5940527604e-01
 15         0.0000000000e+00
 16         0.0000000000e+00
 17         5.2042446708e-01
 18        -3.2262058705e-02
 19         0.0000000000e+00
 20         0.0000000000e+00
 21         8.0406619072e-02
 22         0.0000000000e+00
 23         2.0990432298e-01
 24         0.0000000000e+00
 25         0.0000000000e+00
 26         1.2492610574e-01
 27         0.0000000000e+00
 28         5.7383904990e-01
 29         0.0000000000e+00
 30         0.0000000000e+00
 31         7.0788835079e-01
 32         0.0000000000e+00
 33        -7.5665596356e-04
 34         0.0000000000e+00
 35         0.0000000000e+00
 36         6.9632397127e-02
 37         0.0000000000e+00
 38         0.0000000000e+00
 39         0.0000000000e+00
 40        -3.0235801859e-01
 41         0.0000000000e+00
 42         0.0000000000e+00
 43        -2.4848489415e-01
 44         0.0000000000e+00
 45         0.0000000000e+00
 46         0.0000000000e+00
 47         3.5965048350e-02
 48         0.0000000000e+00
 49         0.0000000000e+00
 50        -1.7920400614e-01
 51         0.0000000000e+00
 52         0.0000000000e+00
 53         0.0000000000e+00
 54         9.1252979129e-02
 55         0.0000000000e+00
 56        -2.7365043908e-01
 57         7.2133883696e-01
 58         1.3774525305e+00
 59         1.4242392474e-01
 60         0.0000000000e+00
 61        -5.7938663491e-01
 62        -1.7319168682e-01
 63         0.0000000000e+00
 64         4.1746857269e-01
 65         5.9753078530e-01
 66         0.0000000000e+00
 67        -6.7006505089e-01
 68         5.2858204648e-01
 69         2.1443089388e-01
 70         0.0000000000e+00
 71         5.0616220965e-01
 72        -3.0055060215e-01
 73         0.0000000000e+00
 74         1.4485767180e-01
 75         0.0000000000e+00
 76        -4.8899007568e-01
 77         2.5020388332e-01
 78         0.0000000000e+00
 79         7.6960001509e-02
 80         0.0000000000e+00
 81        -1.1701404396e-01
 82         1.8481975305e-01
 83         0.0000000000e+00
 84         0.0000000000e+00
 85        -1.7587472391e-01
 86        -2.7365043908e-01
 87         7.2133883696e-01
 88         1.3774525305e+00
 89         1.4242392474e-01
 90         0.0000000000e+00
 91         5.7938663491e-01
 92        -1.7319168682e-01
 93         0.0000000000e+00
 94        -4.1746857269e-01
 95         5.9753078530e-01
 96         0.0000000000e+00
 97         6.7006505089e-01
 98         5.2858204648e-01
 99         2.1443089388e-01
100         0.0000000000e+00
101        -5.0616220965e-01
102        -3.0055060215e-01
103         0.0000000000e+00
104         1.4485767180e-01
105         0.0000000000e+00
106         4.8899007568e-01
107         2.5020388332e-01
108         0.0000000000e+00
109         7.6960001509e-02
110         0.0000000000e+00
111         1.1701404396e-01
112         1.8481975305e-01
113         0.0000000000e+00
114         0.0000000000e+00
115         1.7587472391e-01
 Sym= B1
 Ene=         7.6345672785e+00
 Spin= Beta
 Occup=         0.0000000000e+00
  1         0.0000000000e+00
  2         0.0000000000e+00
  3         0.0000000000e+00
  4         0.0000000000e+00
  5         0.0000000000e+00
  6         1.4648064799e-03
  7         0.0000000000e+00
  8         0.0000000000e+00
  9         4.0962606987e-02
 10         0.0000000000e+00
 11         0.0000000000e+00
 12        -1.0417890703e+00
 13         0.0000000000e+00
 14         0.0000000000e+00
 15        -1.9475718189e-01
 16         0.0000000000e+00
 17         0.0000000000e+00
 18         0.0000000000e+00
 19        -2.6799937872e-03
 20         0.0000000000e+00
 21         0.0000000000e+00
 22         0.0000000000e+00
 23         0.0000000000e+00
 24         2.3178062326e-01
 25         0.0000000000e+00
 26         0.0000000000e+00
 27         0.0000000000e+00
 28         0.0000000000e+00
 29         3.3053416849e-01
 30         0.0000000000e+00
 31         0.0000000000e+00
 32         0.0000000000e+00
 33         0.0000000000e+00
 34         1.2257704070e-02
 35         0.0000000000e+00
 36         0.0000000000e+00
 37         0.0000000000e+00
 38         5.5367818120e-02
 39         0.0000000000e+00
 40         0.0000000000e+00
 41        -2.7423592408e-02
 42         0.0000000000e+00
 43         0.0000000000e+00
 44         0.0000000000e+00
 45         2.6766111002e-01
 46         0.0000000000e+00
 47         0.0000000000e+00
 48        -1.3492505159e-01
 49         0.0000000000e+00
 50         0.0000000000e+00
 51         0.0000000000e+00
 52        -2.6282999316e-01
 53         0.0000000000e+00
 54         0.0000000000e+00
 55         0.0000000000e+00
 56         0.0000000000e+00
 57         0.0000000000e+00
 58         0.0000000000e+00
 59         0.0000000000e+00
 60        -7.4831510694e-02
 61         0.0000000000e+00
 62         0.0000000000e+00
 63         3.3462659693e-01
 64         0.0000000000e+00
 65         0.0000000000e+00
 66         3.3482665927e-01
 67         0.0000000000e+00
 68         0.0000000000e+00
 69         0.0000000000e+00
 70        -7.9284724806e-01
 71         0.0000000000e+00
 72         0.0000000000e+00
 73        -5.0200262948e-02
 74         0.0000000000e+00
 75         6.9651861595e-01
 76         0.0000000000e+00
 77         0.0000000000e+00
 78        -3.7856460343e-01
 79         0.0000000000e+00
 80         8.9724602563e-02
 81         0.0000000000e+00
 82         0.0000000000e+00
 83        -3.0176988433e-01
 84        -1.6717882918e-01
 85         0.0000000000e+00
 86         0.0000000000e+00
 87         0.0000000000e+00
 88         0.0000000000e+00
 89         0.0000000000e+00
 90        -7.4831510694e-02
 91         0.0000000000e+00
 92         0.0000000000e+00
 93         3.3462659693e-01
 94         0.0000000000e+00
 95         0.0000000000e+00
 96         3.3482665927e-01
 97         0.0000000000e+00
 98         0.0000000000e+00
 99         0.0000000000e+00
100        -7.9284724806e-01
101         0.0000000000e+00
102         0.0000000000e+00
103         5.0200262948e-02
104         0.0000000000e+00
105         6.9651861595e-01
106         0.0000000000e+00
107         0.0000000000e+00
108         3.7856460343e-01
109         0.0000000000e+00
110         8.9724602563e-02
111         0.0000000000e+00
112         0.0000000000e+00
113         3.0176988433e-01
114        -1.6717882918e-01
115         0.0000000000e+00
 Sym= B1
 Ene=         7.6896996945e+00
 Spin= Beta
 Occup=         0.0000000000e+00
  1         0.0000000000e+00
  2         0.0000000000e+00
  3         0.0000000000e+00
  4         0.0000000000e+00
  5         0.0000000000e+00
  6         8.5428666539e-02
  7         0.0000000000e+00
  8         0.0000000000e+00
  9        -2.8789282890e-02
 10         0.0000000000e+00
 11         0.0000000000e+00
 12        -1.0544469114e+00
 13         0.0000000000e+00
 14         0.0000000000e+00
 15        -3.1532408107e-01
 16         0.0000000000e+00
 17         0.0000000000e+00
 18         0.0000000000e+00
 19        -4.9985681860e-02
 20         0.0000000000e+00
 21         0.0000000000e+00
 22         0.0000000000e+00
 23         0.0000000000e+00
 24         1.1850096105e-01
 25         0.0000000000e+00
 26         0.0000000000e+00
 27         0.0000000000e+00
 28         0.0000000000e+00
 29         7.1037902543e-01
 30         0.0000000000e+00
 31         0.0000000000e+00
 32         0.0000000000e+00
 33         0.0000000000e+00
 34        -4.8664400116e-02
 35         0.0000000000e+00
 36         0.0000000000e+00
 37         0.0000000000e+00
 38         7.4368302373e-02
 39         0.0000000000e+00
 40         0.0000000000e+00
 41        -1.3670374069e-01
 42         0.0000000000e+00
 43         0.0000000000e+00
 44         0.0000000000e+00
 45         1.4391023752e-01
 46         0.0000000000e+00
 47         0.0000000000e+00
 48         6.2867497834e-02
 49         0.0000000000e+00
 50         0.0000000000e+00
 51         0.0000000000e+00
 52        -3.0925344994e-01
 53         0.0000000000e+00
 54         0.0000000000e+00
 55         0.0000000000e+00
 56         0.0000000000e+00
 57         0.0000000000e+00
 58         0.0000000000e+00
 59         0.0000000000e+00
 60        -2.9128571857e-02
 61         0.0000000000e+00
 62         0.0000000000e+00
 63         3.1478161041e-01
 64         0.0000000000e+00
 65         0.0000000000e+00
 66         4.2700598760e-01
 67         0.0000000000e+00
 68         0.0000000000e+00
 69         0.0000000000e+00
 70         6.1656688963e-02
 71         0.0000000000e+00
 72         0.0000000000e+00
 73         7.9405450124e-01
 74         0.0000000000e+00
 75         2.1291440366e-01
 76         0.0000000000e+00
 77         0.0000000000e+00
 78        -8.6177367531e-01
 79         0.0000000000e+00
 80        -4.8591773726e-02
 81         0.0000000000e+00
 82         0.0000000000e+00
 83        -2.3256951578e-01
 84        -2.0913764528e-01
 85         0.0000000000e+00
 86         0.0000000000e+00
 87         0.0000000000e+00
 88         0.0000000000e+00
 89         0.0000000000e+00
 90        -2.9128571857e-02
 91         0.0000000000e+00
 92         0.0000000000e+00
 93         3.1478161041e-01
 94         0.0000000000e+00
 95         0.0000000000e+00
 96         4.2700598760e-01
 97         0.0000000000e+00
 98         0.0000000000e+00
 99         0.0000000000e+00
100         6.1656688963e-02
101         0.0000000000e+00
102         0.0000000000e+00
103        -7.9405450124e-01
104         0.0000000000e+00
105         2.1291440366e-01
106         0.0000000000e+00
107         0.0000000000e+00
108         8.6177367531e-01
109         0.0000000000e+00
110        -4.8591773726e-02
111         0.0000000000e+00
112         0.0000000000e+00
113         2.3256951578e-01
114        -2.0913764528e-01
115         0.0000000000e+00
 Sym= A2
 Ene=         7.7639014561e+00
 Spin= Beta
 Occup=         0.0000000000e+00
  1         0.0000000000e+00
  2         0.0000000000e+00
  3         0.0000000000e+00
  4         0.0000000000e+00
  5         0.0000000000e+00
  6         0.0000000000e+00
  7         0.0000000000e+00
  8         0.0000000000e+00
  9         0.0000000000e+00
 10         0.0000000000e+00
 11         0.0000000000e+00
 12         0.0000000000e+00
 13         0.0000000000e+00
 14         0.0000000000e+00
 15         0.0000000000e+00
 16         0.0000000000e+00
 17         0.0000000000e+00
 18         0.0000000000e+00
 19         0.0000000000e+00
 20         0.0000000000e+00
 21         0.0000000000e+00
 22         4.9632891322e-02
 23         0.0000000000e+00
 24         0.0000000000e+00
 25         0.0000000000e+00
 26         0.0000000000e+00
 27        -4.4420271339e-01
 28         0.0000000000e+00
 29         0.0000000000e+00
 30         0.0000000000e+00
 31         0.0000000000e+00
 32        -9.5809352153e-01
 33         0.0000000000e+00
 34         0.0000000000e+00
 35         0.0000000000e+00
 36         0.0000000000e+00
 37         8.7656620577e-02
 38         0.0000000000e+00
 39         0.0000000000e+00
 40         0.0000000000e+00
 41         0.0000000000e+00
 42         0.0000000000e+00
 43         0.0000000000e+00
 44         4.4860361859e-01
 45         0.0000000000e+00
 46         0.0000000000e+00
 47         0.0000000000e+00
 48         0.0000000000e+00
 49         0.0000000000e+00
 50         0.0000000000e+00
 51        -2.9833260090e-01
 52         0.0000000000e+00
 53         0.0000000000e+00
 54         0.0000000000e+00
 55         2.9452825200e-01
 56         0.0000000000e+00
 57         0.0000000000e+00
 58         0.0000000000e+00
 59         0.0000000000e+00
 60        -2.8602628626e-01
 61         0.0000000000e+00
 62         0.0000000000e+00
 63         6.8604281560e-01
 64         0.0000000000e+00
 65         0.0000000000e+00
 66         4.5157539027e-01
 67         0.0000000000e+00
 68         0.0000000000e+00
 69         0.0000000000e+00
 70        -1.9854336331e-01
 71         0.0000000000e+00
 72         0.0000000000e+00
 73         6.7917707320e-01
 74         0.0000000000e+00
 75         5.3940299505e-01
 76         0.0000000000e+00
 77         0.0000000000e+00
 78        -9.7808286934e-01
 79         0.0000000000e+00
 80         7.4853273386e-02
 81         0.0000000000e+00
 82         0.0000000000e+00
 83        -3.0522747613e-01
 84        -4.2340981501e-01
 85         0.0000000000e+00
 86         0.0000000000e+00
 87         0.0000000000e+00
 88         0.0000000000e+00
 89         0.0000000000e+00
 90         2.8602628626e-01
 91         0.0000000000e+00
 92         0.0000000000e+00
 93        -6.8604281560e-01
 94         0.0000000000e+00
 95         0.0000000000e+00
 96        -4.5157539027e-01
 97         0.0000000000e+00
 98         0.0000000000e+00
 99         0.0000000000e+00
100         1.9854336331e-01
101         0.0000000000e+00
102         0.0000000000e+00
103         6.7917707320e-01
104         0.0000000000e+00
105        -5.3940299505e-01
106         0.0000000000e+00
107         0.0000000000e+00
108        -9.7808286934e-01
109         0.0000000000e+00
110        -7.4853273386e-02
111         0.0000000000e+00
112         0.0000000000e+00
113        -3.0522747613e-01
114         4.2340981501e-01
115         0.0000000000e+00
 Sym= A1
 Ene=         7.7837626438e+00
 Spin= Beta
 Occup=         0.0000000000e+00
  1         1.3717339514e-01
  2         3.3878604620e-01
  3         1.2530604949e+00
  4        -2.1939187527e+00
  5        -2.0095115000e+00
  6         0.0000000000e+00
  7         0.0000000000e+00
  8        -8.3038570434e-02
  9         0.0000000000e+00
 10         0.0000000000e+00
 11        -2.3732963828e-01
 12         0.0000000000e+00
 13         0.0000000000e+00
 14         1.3403883912e+00
 15         0.0000000000e+00
 16         0.0000000000e+00
 17         2.4586346737e-01
 18         1.0858212960e-02
 19         0.0000000000e+00
 20         0.0000000000e+00
 21         9.6749560540e-02
 22         0.0000000000e+00
 23        -1.4188789367e-01
 24         0.0000000000e+00
 25         0.0000000000e+00
 26        -9.1874378457e-02
 27         0.0000000000e+00
 28         8.8622894817e-02
 29         0.0000000000e+00
 30         0.0000000000e+00
 31         7.9853794225e-01
 32         0.0000000000e+00
 33         2.9728108864e-02
 34         0.0000000000e+00
 35         0.0000000000e+00
 36         3.7060060664e-02
 37         0.0000000000e+00
 38         0.0000000000e+00
 39         0.0000000000e+00
 40        -1.5971415782e-01
 41         0.0000000000e+00
 42         0.0000000000e+00
 43        -3.7844192267e-01
 44         0.0000000000e+00
 45         0.0000000000e+00
 46         0.0000000000e+00
 47        -1.6386996518e-01
 48         0.0000000000e+00
 49         0.0000000000e+00
 50        -7.0959641500e-02
 51         0.0000000000e+00
 52         0.0000000000e+00
 53         0.0000000000e+00
 54         2.1442410516e-02
 55         0.0000000000e+00
 56        -4.3747660215e-01
 57         1.2294927809e+00
 58         8.5965141775e-01
 59         1.7826738546e-01
 60         0.0000000000e+00
 61        -3.4240597327e-01
 62         3.2045118564e-01
 63         0.0000000000e+00
 64        -5.0674931005e-02
 65         1.8945441469e-02
 66         0.0000000000e+00
 67        -5.5235085248e-01
 68         5.1772649658e-01
 69        -2.7128698198e-01
 70         0.0000000000e+00
 71         5.6205766708e-02
 72         5.9630175620e-01
 73         0.0000000000e+00
 74         1.6167651208e-01
 75         0.0000000000e+00
 76        -1.4304657481e-01
 77        -4.2584030582e-01
 78         0.0000000000e+00
 79         3.5672994813e-02
 80         0.0000000000e+00
 81         1.3865666438e-01
 82         1.2961877639e-01
 83         0.0000000000e+00
 84         0.0000000000e+00
 85         3.9068673946e-02
 86        -4.3747660215e-01
 87         1.2294927809e+00
 88         8.5965141775e-01
 89         1.7826738546e-01
 90         0.0000000000e+00
 91         3.4240597327e-01
 92         3.2045118564e-01
 93         0.0000000000e+00
 94         5.0674931005e-02
 95         1.8945441469e-02
 96         0.0000000000e+00
 97         5.5235085248e-01
 98         5.1772649658e-01
 99        -2.7128698198e-01
100         0.0000000000e+00
101        -5.6205766708e-02
102         5.9630175620e-01
103         0.0000000000e+00
104         1.6167651208e-01
105         0.0000000000e+00
106         1.4304657481e-01
107        -4.2584030582e-01
108         0.0000000000e+00
109         3.5672994813e-02
110         0.0000000000e+00
111        -1.3865666438e-01
112         1.2961877639e-01
113         0.0000000000e+00
114         0.0000000000e+00
115        -3.9068673946e-02
 Sym= B2
 Ene=         7.8045514524e+00
 Spin= Beta
 Occup=         0.0000000000e+00
  1         0.0000000000e+00
  2         0.0000000000e+00
  3         0.0000000000e+00
  4         0.0000000000e+00
  5         0.0000000000e+00
  6         0.0000000000e+00
  7         6.8191505684e-03
  8         0.0000000000e+00
  9         0.0000000000e+00
 10        -1.0769863348e-01
 11         0.0000000000e+00
 12         0.0000000000e+00
 13         1.4662297294e+00
 14         0.0000000000e+00
 15         0.0000000000e+00
 16         4.3011583464e-01
 17         0.0000000000e+00
 18         0.0000000000e+00
 19         0.0000000000e+00
 20        -6.8432727643e-02
 21         0.0000000000e+00
 22         0.0000000000e+00
 23         0.0000000000e+00
 24         0.0000000000e+00
 25        -9.0019098683e-02
 26         0.0000000000e+00
 27         0.0000000000e+00
 28         0.0000000000e+00
 29         0.0000000000e+00
 30        -1.9868425722e-01
 31         0.0000000000e+00
 32         0.0000000000e+00
 33         0.0000000000e+00
 34         0.0000000000e+00
 35        -2.0750784033e-02
 36         0.0000000000e+00
 37         0.0000000000e+00
 38         0.0000000000e+00
 39        -9.6579905763e-03
 40         0.0000000000e+00
 41         0.0000000000e+00
 42        -4.6147461552e-02
 43         0.0000000000e+00
 44         0.0000000000e+00
 45         0.0000000000e+00
 46        -1.9088225878e-01
 47         0.0000000000e+00
 48         0.0000000000e+00
 49         6.5303682182e-02
 50         0.0000000000e+00
 51         0.0000000000e+00
 52         0.0000000000e+00
 53         7.1484436797e-02
 54         0.0000000000e+00
 55         0.0000000000e+00
 56         2.0013296646e-01
 57        -4.8891027433e-01
 58        -1.0187177005e+00
 59        -2.2172033189e-01
 60         0.0000000000e+00
 61         3.9673145592e-01
 62         1.5169587602e-01
 63         0.0000000000e+00
 64        -1.8635753687e-01
 65        -4.4255667923e-01
 66         0.0000000000e+00
 67         6.9156450166e-01
 68        -3.6146862756e-01
 69         5.7690399589e-01
 70         0.0000000000e+00
 71         1.7627358365e-01
 72        -5.1208152221e-01
 73         0.0000000000e+00
 74        -4.8256764752e-01
 75         0.0000000000e+00
 76         1.5537176499e-01
 77         3.6119944861e-01
 78         0.0000000000e+00
 79        -9.1484742135e-02
 80         0.0000000000e+00
 81         1.8466604680e-01
 82         3.5613020417e-02
 83         0.0000000000e+00
 84         0.0000000000e+00
 85         8.1740534333e-03
 86        -2.0013296646e-01
 87         4.8891027433e-01
 88         1.0187177005e+00
 89         2.2172033189e-01
 90         0.0000000000e+00
 91         3.9673145592e-01
 92        -1.5169587602e-01
 93         0.0000000000e+00
 94        -1.8635753687e-01
 95         4.4255667923e-01
 96         0.0000000000e+00
 97         6.9156450166e-01
 98         3.6146862756e-01
 99        -5.7690399589e-01
100         0.0000000000e+00
101         1.7627358365e-01
102         5.1208152221e-01
103         0.0000000000e+00
104         4.8256764752e-01
105         0.0000000000e+00
106         1.5537176499e-01
107        -3.6119944861e-01
108         0.0000000000e+00
109         9.1484742135e-02
110         0.0000000000e+00
111         1.8466604680e-01
112        -3.5613020417e-02
113         0.0000000000e+00
114         0.0000000000e+00
115         8.1740534333e-03
 Sym= A2
 Ene=         7.8646630282e+00
 Spin= Beta
 Occup=         0.0000000000e+00
  1         0.0000000000e+00
  2         0.0000000000e+00
  3         0.0000000000e+00
  4         0.0000000000e+00
  5         0.0000000000e+00
  6         0.0000000000e+00
  7         0.0000000000e+00
  8         0.0000000000e+00
  9         0.0000000000e+00
 10         0.0000000000e+00
 11         0.0000000000e+00
 12         0.0000000000e+00
 13         0.0000000000e+00
 14         0.0000000000e+00
 15         0.0000000000e+00
 16         0.0000000000e+00
 17         0.0000000000e+00
 18         0.0000000000e+00
 19         0.0000000000e+00
 20         0.0000000000e+00
 21         0.0000000000e+00
 22         3.8551955323e-02
 23         0.0000000000e+00
 24         0.0000000000e+00
 25         0.0000000000e+00
 26         0.0000000000e+00
 27         9.1826972926e-02
 28         0.0000000000e+00
 29         0.0000000000e+00
 30         0.0000000000e+00
 31         0.0000000000e+00
 32        -4.2355268441e-01
 33         0.0000000000e+00
 34         0.0000000000e+00
 35         0.0000000000e+00
 36         0.0000000000e+00
 37         6.5600585519e-02
 38         0.0000000000e+00
 39         0.0000000000e+00
 40         0.0000000000e+00
 41         0.0000000000e+00
 42         0.0000000000e+00
 43         0.0000000000e+00
 44        -7.8872329825e-02
 45         0.0000000000e+00
 46         0.0000000000e+00
 47         0.0000000000e+00
 48         0.0000000000e+00
 49         0.0000000000e+00
 50         0.0000000000e+00
 51         5.8141836896e-02
 52         0.0000000000e+00
 53         0.0000000000e+00
 54         0.0000000000e+00
 55         1.7928532042e-01
 56         0.0000000000e+00
 57         0.0000000000e+00
 58         0.0000000000e+00
 59         0.0000000000e+00
 60         8.2818680809e-03
 61         0.0000000000e+00
 62         0.0000000000e+00
 63         4.9923722781e-02
 64         0.0000000000e+00
 65         0.0000000000e+00
 66         1.2492618793e-01
 67         0.0000000000e+00
 68         0.0000000000e+00
 69         0.0000000000e+00
 70        -8.1653146685e-01
 71         0.0000000000e+00
 72         0.0000000000e+00
 73        -2.5511803741e-01
 74         0.0000000000e+00
 75         5.6506937791e-01
 76         0.0000000000e+00
 77         0.0000000000e+00
 78         1.3145781106e-01
 79         0.0000000000e+00
 80         1.3782595976e-01
 81         0.0000000000e+00
 82         0.0000000000e+00
 83        -4.7907012670e-02
 84         1.2346464527e-01
 85         0.0000000000e+00
 86         0.0000000000e+00
 87         0.0000000000e+00
 88         0.0000000000e+00
 89         0.0000000000e+00
 90        -8.2818680809e-03
 91         0.0000000000e+00
 92         0.0000000000e+00
 93        -4.9923722781e-02
 94         0.0000000000e+00
 95         0.0000000000e+00
 96        -1.2492618793e-01
 97         0.0000000000e+00
 98         0.0000000000e+00
 99         0.0000000000e+00
100         8.1653146685e-01
101         0.0000000000e+00
102         0.0000000000e+00
103        -2.5511803741e-01
104         0.0000000000e+00
105        -5.6506937791e-01
106         0.0000000000e+00
107         0.0000000000e+00
108         1.3145781106e-01
109         0.0000000000e+00
110        -1.3782595976e-01
111         0.0000000000e+00
112         0.0000000000e+00
113        -4.7907012670e-02
114        -1.2346464527e-01
115         0.0000000000e+00
 Sym= A1
 Ene=         7.9654120027e+00
 Spin= Beta
 Occup=         0.0000000000e+00
  1         2.8031303261e-02
  2         4.7250876902e-02
  3        -4.4066676964e-02
  4         1.1409952867e+00
  5         3.4408689825e-01
  6         0.0000000000e+00
  7         0.0000000000e+00
  8         9.0689726735e-02
  9         0.0000000000e+00
 10         0.0000000000e+00
 11        -1.0976414539e-01
 12         0.0000000000e+00
 13         0.0000000000e+00
 14        -1.6708924621e+00
 15         0.0000000000e+00
 16         0.0000000000e+00
 17        -3.6212163380e-01
 18        -6.4518166246e-02
 19         0.0000000000e+00
 20         0.0000000000e+00
 21        -5.3389723243e-02
 22         0.0000000000e+00
 23         2.6615993415e-01
 24         0.0000000000e+00
 25         0.0000000000e+00
 26         4.6206846231e-02
 27         0.0000000000e+00
 28         1.1304505472e+00
 29         0.0000000000e+00
 30         0.0000000000e+00
 31         7.8157865117e-01
 32         0.0000000000e+00
 33        -4.2246582962e-02
 34         0.0000000000e+00
 35         0.0000000000e+00
 36         3.0677810925e-02
 37         0.0000000000e+00
 38         0.0000000000e+00
 39         0.0000000000e+00
 40        -4.0155714048e-02
 41         0.0000000000e+00
 42         0.0000000000e+00
 43         3.4772610714e-02
 44         0.0000000000e+00
 45         0.0000000000e+00
 46         0.0000000000e+00
 47        -2.5839334388e-02
 48         0.0000000000e+00
 49         0.0000000000e+00
 50        -3.1593968379e-01
 51         0.0000000000e+00
 52         0.0000000000e+00
 53         0.0000000000e+00
 54        -1.5596245909e-01
 55         0.0000000000e+00
 56         1.2543919007e-01
 57        -2.5754233113e-01
 58        -4.1446276035e-01
 59        -1.2674154467e-02
 60         0.0000000000e+00
 61        -2.4043332298e-01
 62        -3.6659702018e-01
 63         0.0000000000e+00
 64         7.3495643288e-01
 65         5.5481516533e-01
 66         0.0000000000e+00
 67         5.1023924486e-01
 68         2.3178140080e-01
 69        -7.1109431454e-01
 70         0.0000000000e+00
 71        -7.4284004864e-02
 72        -2.3524492164e-01
 73         0.0000000000e+00
 74         1.0345837838e+00
 75         0.0000000000e+00
 76         8.1783306641e-02
 77         5.6687564167e-01
 78         0.0000000000e+00
 79         3.0732231728e-01
 80         0.0000000000e+00
 81        -2.5507967239e-01
 82         1.1852425750e-01
 83         0.0000000000e+00
 84         0.0000000000e+00
 85        -9.3542182015e-02
 86         1.2543919007e-01
 87        -2.5754233113e-01
 88        -4.1446276035e-01
 89        -1.2674154467e-02
 90         0.0000000000e+00
 91         2.4043332298e-01
 92        -3.6659702018e-01
 93         0.0000000000e+00
 94        -7.3495643288e-01
 95         5.5481516533e-01
 96         0.0000000000e+00
 97        -5.1023924486e-01
 98         2.3178140080e-01
 99        -7.1109431454e-01
100         0.0000000000e+00
101         7.4284004864e-02
102        -2.3524492164e-01
103         0.0000000000e+00
104         1.0345837838e+00
105         0.0000000000e+00
106        -8.1783306641e-02
107         5.6687564167e-01
108         0.0000000000e+00
109         3.0732231728e-01
110         0.0000000000e+00
111         2.5507967239e-01
112         1.1852425750e-01
113         0.0000000000e+00
114         0.0000000000e+00
115         9.3542182015e-02
 Sym= B2
 Ene=         8.1727219502e+00
 Spin= Beta
 Occup=         0.0000000000e+00
  1         0.0000000000e+00
  2         0.0000000000e+00
  3         0.0000000000e+00
  4         0.0000000000e+00
  5         0.0000000000e+00
  6         0.0000000000e+00
  7         1.9506434451e-01
  8         0.0000000000e+00
  9         0.0000000000e+00
 10        -6.2732445897e-01
 11         0.0000000000e+00
 12         0.0000000000e+00
 13        -9.7187033978e-01
 14         0.0000000000e+00
 15         0.0000000000e+00
 16        -8.8065219048e-01
 17         0.0000000000e+00
 18         0.0000000000e+00
 19         0.0000000000e+00
 20         9.8281529454e-03
 21         0.0000000000e+00
 22         0.0000000000e+00
 23         0.0000000000e+00
 24         0.0000000000e+00
 25         2.1643971699e-01
 26         0.0000000000e+00
 27         0.0000000000e+00
 28         0.0000000000e+00
 29         0.0000000000e+00
 30         4.4298324421e-01
 31         0.0000000000e+00
 32         0.0000000000e+00
 33         0.0000000000e+00
 34         0.0000000000e+00
 35         3.6630561046e-02
 36         0.0000000000e+00
 37         0.0000000000e+00
 38         0.0000000000e+00
 39         1.1672617321e-01
 40         0.0000000000e+00
 41         0.0000000000e+00
 42        -3.6895918975e-01
 43         0.0000000000e+00
 44         0.0000000000e+00
 45         0.0000000000e+00
 46        -3.7125622151e-01
 47         0.0000000000e+00
 48         0.0000000000e+00
 49        -2.1098667652e-01
 50         0.0000000000e+00
 51         0.0000000000e+00
 52         0.0000000000e+00
 53        -1.5160160362e-01
 54         0.0000000000e+00
 55         0.0000000000e+00
 56        -2.4415331589e-01
 57         4.3371006911e-01
 58         1.5191655739e+00
 59         1.7826664588e-01
 60         0.0000000000e+00
 61         3.2971704156e-01
 62         2.3584670938e-01
 63         0.0000000000e+00
 64        -8.0669337360e-01
 65        -2.0447750316e-01
 66         0.0000000000e+00
 67        -5.2052974362e-01
 68         8.3019831495e-01
 69        -3.0703321170e-01
 70         0.0000000000e+00
 71         6.5371689009e-01
 72        -8.4185649208e-02
 73         0.0000000000e+00
 74         3.5970198813e-02
 75         0.0000000000e+00
 76        -9.0669683679e-01
 77        -2.0912362774e-01
 78         0.0000000000e+00
 79        -3.3084017937e-01
 80         0.0000000000e+00
 81        -1.1585489491e-01
 82        -2.7851950880e-01
 83         0.0000000000e+00
 84         0.0000000000e+00
 85         1.6987128951e-05
 86         2.4415331589e-01
 87        -4.3371006911e-01
 88        -1.5191655739e+00
 89        -1.7826664588e-01
 90         0.0000000000e+00
 91         3.2971704156e-01
 92        -2.3584670938e-01
 93         0.0000000000e+00
 94        -8.0669337360e-01
 95         2.0447750316e-01
 96         0.0000000000e+00
 97        -5.2052974362e-01
 98        -8.3019831495e-01
 99         3.0703321170e-01
100         0.0000000000e+00
101         6.5371689009e-01
102         8.4185649208e-02
103         0.0000000000e+00
104        -3.5970198813e-02
105         0.0000000000e+00
106        -9.0669683679e-01
107         2.0912362774e-01
108         0.0000000000e+00
109         3.3084017937e-01
110         0.0000000000e+00
111        -1.1585489491e-01
112         2.7851950880e-01
113         0.0000000000e+00
114         0.0000000000e+00
115         1.6987128951e-05
 Sym= A2
 Ene=         8.2854620482e+00
 Spin= Beta
 Occup=         0.0000000000e+00
  1         0.0000000000e+00
  2         0.0000000000e+00
  3         0.0000000000e+00
  4         0.0000000000e+00
  5         0.0000000000e+00
  6         0.0000000000e+00
  7         0.0000000000e+00
  8         0.0000000000e+00
  9         0.0000000000e+00
 10         0.0000000000e+00
 11         0.0000000000e+00
 12         0.0000000000e+00
 13         0.0000000000e+00
 14         0.0000000000e+00
 15         0.0000000000e+00
 16         0.0000000000e+00
 17         0.0000000000e+00
 18         0.0000000000e+00
 19         0.0000000000e+00
 20         0.0000000000e+00
 21         0.0000000000e+00
 22         4.8860296964e-02
 23         0.0000000000e+00
 24         0.0000000000e+00
 25         0.0000000000e+00
 26         0.0000000000e+00
 27         8.6578112981e-01
 28         0.0000000000e+00
 29         0.0000000000e+00
 30         0.0000000000e+00
 31         0.0000000000e+00
 32         1.2085542373e+00
 33         0.0000000000e+00
 34         0.0000000000e+00
 35         0.0000000000e+00
 36         0.0000000000e+00
 37         1.3338045379e-01
 38         0.0000000000e+00
 39         0.0000000000e+00
 40         0.0000000000e+00
 41         0.0000000000e+00
 42         0.0000000000e+00
 43         0.0000000000e+00
 44        -1.0476657671e+00
 45         0.0000000000e+00
 46         0.0000000000e+00
 47         0.0000000000e+00
 48         0.0000000000e+00
 49         0.0000000000e+00
 50         0.0000000000e+00
 51        -6.7380792893e-02
 52         0.0000000000e+00
 53         0.0000000000e+00
 54         0.0000000000e+00
 55         4.8992910948e-02
 56         0.0000000000e+00
 57         0.0000000000e+00
 58         0.0000000000e+00
 59         0.0000000000e+00
 60         9.5336929608e-01
 61         0.0000000000e+00
 62         0.0000000000e+00
 63        -1.6434792912e+00
 64         0.0000000000e+00
 65         0.0000000000e+00
 66        -1.9121003621e-01
 67         0.0000000000e+00
 68         0.0000000000e+00
 69         0.0000000000e+00
 70         1.9405543056e-02
 71         0.0000000000e+00
 72         0.0000000000e+00
 73         2.4580676636e-01
 74         0.0000000000e+00
 75        -6.4340904314e-01
 76         0.0000000000e+00
 77         0.0000000000e+00
 78         6.6875935262e-01
 79         0.0000000000e+00
 80        -1.0693395132e-01
 81         0.0000000000e+00
 82         0.0000000000e+00
 83         5.9483031788e-01
 84         3.9466150994e-01
 85         0.0000000000e+00
 86         0.0000000000e+00
 87         0.0000000000e+00
 88         0.0000000000e+00
 89         0.0000000000e+00
 90        -9.5336929608e-01
 91         0.0000000000e+00
 92         0.0000000000e+00
 93         1.6434792912e+00
 94         0.0000000000e+00
 95         0.0000000000e+00
 96         1.9121003621e-01
 97         0.0000000000e+00
 98         0.0000000000e+00
 99         0.0000000000e+00
100        -1.9405543056e-02
101         0.0000000000e+00
102         0.0000000000e+00
103         2.4580676636e-01
104         0.0000000000e+00
105         6.4340904314e-01
106         0.0000000000e+00
107         0.0000000000e+00
108         6.6875935262e-01
109         0.0000000000e+00
110         1.0693395132e-01
111         0.0000000000e+00
112         0.0000000000e+00
113         5.9483031788e-01
114        -3.9466150994e-01
115         0.0000000000e+00
 Sym= B1
 Ene=         8.2867788032e+00
 Spin= Beta
 Occup=         0.0000000000e+00
  1         0.0000000000e+00
  2         0.0000000000e+00
  3         0.0000000000e+00
  4         0.0000000000e+00
  5         0.0000000000e+00
  6         2.3368074805e-01
  7         0.0000000000e+00
  8         0.0000000000e+00
  9        -4.5907264872e-01
 10         0.0000000000e+00
 11         0.0000000000e+00
 12         2.5440781022e+00
 13         0.0000000000e+00
 14         0.0000000000e+00
 15         2.2105568003e-02
 16         0.0000000000e+00
 17         0.0000000000e+00
 18         0.0000000000e+00
 19        -3.3112997457e-02
 20         0.0000000000e+00
 21         0.0000000000e+00
 22         0.0000000000e+00
 23         0.0000000000e+00
 24        -6.2985633708e-01
 25         0.0000000000e+00
 26         0.0000000000e+00
 27         0.0000000000e+00
 28         0.0000000000e+00
 29        -1.0044401730e+00
 30         0.0000000000e+00
 31         0.0000000000e+00
 32         0.0000000000e+00
 33         0.0000000000e+00
 34         3.2061489466e-03
 35         0.0000000000e+00
 36         0.0000000000e+00
 37         0.0000000000e+00
 38         8.8332358323e-02
 39         0.0000000000e+00
 40         0.0000000000e+00
 41         2.9585055758e-01
 42         0.0000000000e+00
 43         0.0000000000e+00
 44         0.0000000000e+00
 45        -9.3191050412e-01
 46         0.0000000000e+00
 47         0.0000000000e+00
 48         6.7977332119e-02
 49         0.0000000000e+00
 50         0.0000000000e+00
 51         0.0000000000e+00
 52         4.1904211225e-02
 53         0.0000000000e+00
 54         0.0000000000e+00
 55         0.0000000000e+00
 56         0.0000000000e+00
 57         0.0000000000e+00
 58         0.0000000000e+00
 59         0.0000000000e+00
 60         1.0858093209e+00
 61         0.0000000000e+00
 62         0.0000000000e+00
 63        -1.8396585768e+00
 64         0.0000000000e+00
 65         0.0000000000e+00
 66        -2.0907203049e-01
 67         0.0000000000e+00
 68         0.0000000000e+00
 69         0.0000000000e+00
 70        -1.1943625928e-01
 71         0.0000000000e+00
 72         0.0000000000e+00
 73         1.1039576559e-03
 74         0.0000000000e+00
 75        -5.6941855154e-01
 76         0.0000000000e+00
 77         0.0000000000e+00
 78         9.5534851468e-01
 79         0.0000000000e+00
 80        -1.3672045448e-01
 81         0.0000000000e+00
 82         0.0000000000e+00
 83         5.1753720677e-01
 84         4.8933181172e-01
 85         0.0000000000e+00
 86         0.0000000000e+00
 87         0.0000000000e+00
 88         0.0000000000e+00
 89         0.0000000000e+00
 90         1.0858093209e+00
 91         0.0000000000e+00
 92         0.0000000000e+00
 93        -1.8396585768e+00
 94         0.0000000000e+00
 95         0.0000000000e+00
 96        -2.0907203049e-01
 97         0.0000000000e+00
 98         0.0000000000e+00
 99         0.0000000000e+00
100        -1.1943625928e-01
101         0.0000000000e+00
102         0.0000000000e+00
103        -1.1039576559e-03
104         0.0000000000e+00
105        -5.6941855154e-01
106         0.0000000000e+00
107         0.0000000000e+00
108        -9.5534851468e-01
109         0.0000000000e+00
110        -1.3672045448e-01
111         0.0000000000e+00
112         0.0000000000e+00
113        -5.1753720677e-01
114         4.8933181172e-01
115         0.0000000000e+00
 Sym= A1
 Ene=         8.4205231232e+00
 Spin= Beta
 Occup=         0.0000000000e+00
  1         1.9817121304e-01
  2         3.6119476005e-01
  3         5.5339939357e-01
  4         3.0999045162e+00
  5         2.7415793868e+00
  6         0.0000000000e+00
  7         0.0000000000e+00
  8         5.9783552477e-02
  9         0.0000000000e+00
 10         0.0000000000e+00
 11        -6.7784449235e-01
 12         0.0000000000e+00
 13         0.0000000000e+00
 14        -4.0371599027e-01
 15         0.0000000000e+00
 16         0.0000000000e+00
 17        -4.8776699209e-01
 18         1.1326199648e-02
 19         0.0000000000e+00
 20         0.0000000000e+00
 21         9.1983605721e-02
 22         0.0000000000e+00
 23        -1.7680274452e-01
 24         0.0000000000e+00
 25         0.0000000000e+00
 26        -3.3601729169e-01
 27         0.0000000000e+00
 28        -4.6163935722e-01
 29         0.0000000000e+00
 30         0.0000000000e+00
 31        -2.7058972082e-01
 32         0.0000000000e+00
 33         1.4425877714e-01
 34         0.0000000000e+00
 35         0.0000000000e+00
 36         2.3098147945e-01
 37         0.0000000000e+00
 38         0.0000000000e+00
 39         0.0000000000e+00
 40        -8.5892856385e-02
 41         0.0000000000e+00
 42         0.0000000000e+00
 43        -3.6277943642e-01
 44         0.0000000000e+00
 45         0.0000000000e+00
 46         0.0000000000e+00
 47        -1.5970471350e-01
 48         0.0000000000e+00
 49         0.0000000000e+00
 50        -1.5800667268e-01
 51         0.0000000000e+00
 52         0.0000000000e+00
 53         0.0000000000e+00
 54         2.8294376466e-01
 55         0.0000000000e+00
 56         2.1969493929e-01
 57         1.0147108033e-01
 58        -2.6299148104e+00
 59        -2.0320918016e-03
 60         0.0000000000e+00
 61        -2.4650571971e-01
 62         6.7841497308e-01
 63         0.0000000000e+00
 64         4.7550049219e-01
 65        -1.0812460726e+00
 66         0.0000000000e+00
 67         1.1261297219e+00
 68        -9.1129337206e-01
 69         1.1791770985e-01
 70         0.0000000000e+00
 71        -4.7708353087e-01
 72        -2.9408516420e-01
 73         0.0000000000e+00
 74        -3.2871007678e-01
 75         0.0000000000e+00
 76         1.1933478261e+00
 77         5.9524546651e-01
 78         0.0000000000e+00
 79         9.9454495923e-02
 80         0.0000000000e+00
 81         3.2360348554e-01
 82         4.3921562795e-01
 83         0.0000000000e+00
 84         0.0000000000e+00
 85        -1.8261617621e-01
 86         2.1969493929e-01
 87         1.0147108033e-01
 88        -2.6299148104e+00
 89        -2.0320918016e-03
 90         0.0000000000e+00
 91         2.4650571971e-01
 92         6.7841497308e-01
 93         0.0000000000e+00
 94        -4.7550049219e-01
 95        -1.0812460726e+00
 96         0.0000000000e+00
 97        -1.1261297219e+00
 98        -9.1129337206e-01
 99         1.1791770985e-01
100         0.0000000000e+00
101         4.7708353087e-01
102        -2.9408516420e-01
103         0.0000000000e+00
104        -3.2871007678e-01
105         0.0000000000e+00
106        -1.1933478261e+00
107         5.9524546651e-01
108         0.0000000000e+00
109         9.9454495923e-02
110         0.0000000000e+00
111        -3.2360348554e-01
112         4.3921562795e-01
113         0.0000000000e+00
114         0.0000000000e+00
115         1.8261617621e-01
 Sym= B2
 Ene=         8.5278228087e+00
 Spin= Beta
 Occup=         0.0000000000e+00
  1         0.0000000000e+00
  2         0.0000000000e+00
  3         0.0000000000e+00
  4         0.0000000000e+00
  5         0.0000000000e+00
  6         0.0000000000e+00
  7         9.7795186639e-02
  8         0.0000000000e+00
  9         0.0000000000e+00
 10         1.8771918976e-01
 11         0.0000000000e+00
 12         0.0000000000e+00
 13        -1.2123579729e+00
 14         0.0000000000e+00
 15         0.0000000000e+00
 16         2.5562941514e-01
 17         0.0000000000e+00
 18         0.0000000000e+00
 19         0.0000000000e+00
 20         3.5707903075e-02
 21         0.0000000000e+00
 22         0.0000000000e+00
 23         0.0000000000e+00
 24         0.0000000000e+00
 25        -6.4299878365e-01
 26         0.0000000000e+00
 27         0.0000000000e+00
 28         0.0000000000e+00
 29         0.0000000000e+00
 30        -5.6939262669e-01
 31         0.0000000000e+00
 32         0.0000000000e+00
 33         0.0000000000e+00
 34         0.0000000000e+00
 35        -1.5566152919e-01
 36         0.0000000000e+00
 37         0.0000000000e+00
 38         0.0000000000e+00
 39        -3.9830229958e-02
 40         0.0000000000e+00
 41         0.0000000000e+00
 42         1.4109029899e+00
 43         0.0000000000e+00
 44         0.0000000000e+00
 45         0.0000000000e+00
 46         5.6860255279e-01
 47         0.0000000000e+00
 48         0.0000000000e+00
 49        -1.6370255398e-01
 50         0.0000000000e+00
 51         0.0000000000e+00
 52         0.0000000000e+00
 53         5.0476060847e-02
 54         0.0000000000e+00
 55         0.0000000000e+00
 56        -8.4613619673e-02
 57         1.3037635493e-01
 58        -7.7820750460e-01
 59        -2.6022966315e-02
 60         0.0000000000e+00
 61        -5.9681453951e-01
 62        -7.1788042525e-01
 63         0.0000000000e+00
 64         1.1973981263e+00
 65         1.3164487721e+00
 66         0.0000000000e+00
 67         4.9430532623e-01
 68         1.0092533770e-01
 69         1.5095142841e-01
 70         0.0000000000e+00
 71         3.4408803587e-01
 72        -1.5639650321e-01
 73         0.0000000000e+00
 74         1.0290798056e+00
 75         0.0000000000e+00
 76        -4.6924802340e-01
 77         8.7281193285e-01
 78         0.0000000000e+00
 79         3.4582839079e-01
 80         0.0000000000e+00
 81        -6.4514274026e-01
 82         5.4655720886e-02
 83         0.0000000000e+00
 84         0.0000000000e+00
 85        -4.2957813521e-01
 86         8.4613619673e-02
 87        -1.3037635493e-01
 88         7.7820750460e-01
 89         2.6022966315e-02
 90         0.0000000000e+00
 91        -5.9681453951e-01
 92         7.1788042525e-01
 93         0.0000000000e+00
 94         1.1973981263e+00
 95        -1.3164487721e+00
 96         0.0000000000e+00
 97         4.9430532623e-01
 98        -1.0092533770e-01
 99        -1.5095142841e-01
100         0.0000000000e+00
101         3.4408803587e-01
102         1.5639650321e-01
103         0.0000000000e+00
104        -1.0290798056e+00
105         0.0000000000e+00
106        -4.6924802340e-01
107        -8.7281193285e-01
108         0.0000000000e+00
109        -3.4582839079e-01
110         0.0000000000e+00
111        -6.4514274026e-01
112        -5.4655720886e-02
113         0.0000000000e+00
114         0.0000000000e+00
115        -4.2957813521e-01
 Sym= A1
 Ene=         8.7343486241e+00
 Spin= Beta
 Occup=         0.0000000000e+00
  1         1.0590943264e-02
  2        -2.5673522162e-02
  3        -1.0759038534e-01
  4         1.0488455490e-01
  5         4.6777843466e-01
  6         0.0000000000e+00
  7         0.0000000000e+00
  8         3.8913797479e-04
  9         0.0000000000e+00
 10         0.0000000000e+00
 11         2.1143542370e-01
 12         0.0000000000e+00
 13         0.0000000000e+00
 14        -1.6541019990e+00
 15         0.0000000000e+00
 16         0.0000000000e+00
 17        -2.7956900250e-01
 18         8.3611496587e-02
 19         0.0000000000e+00
 20         0.0000000000e+00
 21         1.7897139077e-02
 22         0.0000000000e+00
 23         6.4676786726e-01
 24         0.0000000000e+00
 25         0.0000000000e+00
 26         4.9060069413e-01
 27         0.0000000000e+00
 28         1.2542774007e+00
 29         0.0000000000e+00
 30         0.0000000000e+00
 31         6.5255568958e-01
 32         0.0000000000e+00
 33         7.6452522555e-02
 34         0.0000000000e+00
 35         0.0000000000e+00
 36         4.1289715750e-02
 37         0.0000000000e+00
 38         0.0000000000e+00
 39         0.0000000000e+00
 40        -5.9265585665e-01
 41         0.0000000000e+00
 42         0.0000000000e+00
 43        -1.8293591874e-01
 44         0.0000000000e+00
 45         0.0000000000e+00
 46         0.0000000000e+00
 47        -4.1237147510e-01
 48         0.0000000000e+00
 49         0.0000000000e+00
 50         2.5116385997e-01
 51         0.0000000000e+00
 52         0.0000000000e+00
 53         0.0000000000e+00
 54         1.1587869827e-01
 55         0.0000000000e+00
 56         1.0219557499e-01
 57         4.6341680076e-02
 58        -3.2648722479e-01
 59        -3.4732675501e-03
 60         0.0000000000e+00
 61        -5.5846956860e-01
 62        -5.5154134898e-01
 63         0.0000000000e+00
 64         9.1581658729e-01
 65         1.1244272893e+00
 66         0.0000000000e+00
 67         2.5873568571e-01
 68         1.7444797877e-01
 69         7.4402882774e-02
 70         0.0000000000e+00
 71        -2.8978264017e-01
 72         1.0949082230e-01
 73         0.0000000000e+00
 74         6.8160723833e-01
 75         0.0000000000e+00
 76        -1.8763161448e-01
 77         3.9757662771e-01
 78         0.0000000000e+00
 79         6.5619949775e-02
 80         0.0000000000e+00
 81        -5.8718361578e-01
 82         2.6161060882e-02
 83         0.0000000000e+00
 84         0.0000000000e+00
 85        -1.3231400193e-01
 86         1.0219557499e-01
 87         4.6341680076e-02
 88        -3.2648722479e-01
 89        -3.4732675501e-03
 90         0.0000000000e+00
 91         5.5846956860e-01
 92        -5.5154134898e-01
 93         0.0000000000e+00
 94        -9.1581658729e-01
 95         1.1244272893e+00
 96         0.0000000000e+00
 97        -2.5873568571e-01
 98         1.7444797877e-01
 99         7.4402882774e-02
100         0.0000000000e+00
101         2.8978264017e-01
102         1.0949082230e-01
103         0.0000000000e+00
104         6.8160723833e-01
105         0.0000000000e+00
106         1.8763161448e-01
107         3.9757662771e-01
108         0.0000000000e+00
109         6.5619949775e-02
110         0.0000000000e+00
111         5.8718361578e-01
112         2.6161060882e-02
113         0.0000000000e+00
114         0.0000000000e+00
115         1.3231400193e-01
 Sym= B2
 Ene=         8.7360230681e+00
 Spin= Beta
 Occup=         0.0000000000e+00
  1         0.0000000000e+00
  2         0.0000000000e+00
  3         0.0000000000e+00
  4         0.0000000000e+00
  5         0.0000000000e+00
  6         0.0000000000e+00
  7         3.4726471108e-02
  8         0.0000000000e+00
  9         0.0000000000e+00
 10        -5.2171374404e-01
 11         0.0000000000e+00
 12         0.0000000000e+00
 13        -1.9836287164e+00
 14         0.0000000000e+00
 15         0.0000000000e+00
 16        -5.8079168747e-01
 17         0.0000000000e+00
 18         0.0000000000e+00
 19         0.0000000000e+00
 20        -1.2730701663e-01
 21         0.0000000000e+00
 22         0.0000000000e+00
 23         0.0000000000e+00
 24         0.0000000000e+00
 25         3.3977639914e-01
 26         0.0000000000e+00
 27         0.0000000000e+00
 28         0.0000000000e+00
 29         0.0000000000e+00
 30        -6.9201969608e-02
 31         0.0000000000e+00
 32         0.0000000000e+00
 33         0.0000000000e+00
 34         0.0000000000e+00
 35        -1.7684032934e-01
 36         0.0000000000e+00
 37         0.0000000000e+00
 38         0.0000000000e+00
 39         9.7586111636e-02
 40         0.0000000000e+00
 41         0.0000000000e+00
 42         5.4453919802e-01
 43         0.0000000000e+00
 44         0.0000000000e+00
 45         0.0000000000e+00
 46         2.5104693354e-01
 47         0.0000000000e+00
 48         0.0000000000e+00
 49         2.7275573821e-01
 50         0.0000000000e+00
 51         0.0000000000e+00
 52         0.0000000000e+00
 53        -3.5959119458e-01
 54         0.0000000000e+00
 55         0.0000000000e+00
 56        -2.7360049593e-01
 57         8.0705824366e-02
 58         2.6635175812e+00
 59         4.7644298240e-02
 60         0.0000000000e+00
 61         5.3109691706e-01
 62        -4.4763228487e-01
 63         0.0000000000e+00
 64        -8.2300037795e-01
 65         1.0263416920e+00
 66         0.0000000000e+00
 67        -1.3320685600e+00
 68         6.4439868693e-01
 69         3.1885345933e-01
 70         0.0000000000e+00
 71         1.4011369550e-01
 72         5.0541317937e-01
 73         0.0000000000e+00
 74         2.1557280162e-02
 75         0.0000000000e+00
 76        -7.2552034668e-01
 77        -9.4966491123e-01
 78         0.0000000000e+00
 79         1.1639159954e-01
 80         0.0000000000e+00
 81        -1.5304464998e-01
 82        -2.0234758361e-01
 83         0.0000000000e+00
 84         0.0000000000e+00
 85         3.9306086876e-01
 86         2.7360049593e-01
 87        -8.0705824366e-02
 88        -2.6635175812e+00
 89        -4.7644298240e-02
 90         0.0000000000e+00
 91         5.3109691706e-01
 92         4.4763228487e-01
 93         0.0000000000e+00
 94        -8.2300037795e-01
 95        -1.0263416920e+00
 96         0.0000000000e+00
 97        -1.3320685600e+00
 98        -6.4439868693e-01
 99        -3.1885345933e-01
100         0.0000000000e+00
101         1.4011369550e-01
102        -5.0541317937e-01
103         0.0000000000e+00
104        -2.1557280162e-02
105         0.0000000000e+00
106        -7.2552034668e-01
107         9.4966491123e-01
108         0.0000000000e+00
109        -1.1639159954e-01
110         0.0000000000e+00
111        -1.5304464998e-01
112         2.0234758361e-01
113         0.0000000000e+00
114         0.0000000000e+00
115         3.9306086876e-01
 Sym= B1
 Ene=         9.4851820100e+00
 Spin= Beta
 Occup=         0.0000000000e+00
  1         0.0000000000e+00
  2         0.0000000000e+00
  3         0.0000000000e+00
  4         0.0000000000e+00
  5         0.0000000000e+00
  6         5.6015903725e-02
  7         0.0000000000e+00
  8         0.0000000000e+00
  9        -1.0890186987e-01
 10         0.0000000000e+00
 11         0.0000000000e+00
 12         3.3056682944e-01
 13         0.0000000000e+00
 14         0.0000000000e+00
 15         4.9980901660e-02
 16         0.0000000000e+00
 17         0.0000000000e+00
 18         0.0000000000e+00
 19        -8.6930357580e-02
 20         0.0000000000e+00
 21         0.0000000000e+00
 22         0.0000000000e+00
 23         0.0000000000e+00
 24        -5.0921879194e-02
 25         0.0000000000e+00
 26         0.0000000000e+00
 27         0.0000000000e+00
 28         0.0000000000e+00
 29        -3.4423019093e-01
 30         0.0000000000e+00
 31         0.0000000000e+00
 32         0.0000000000e+00
 33         0.0000000000e+00
 34         1.3427031094e-01
 35         0.0000000000e+00
 36         0.0000000000e+00
 37         0.0000000000e+00
 38         3.2884929324e-02
 39         0.0000000000e+00
 40         0.0000000000e+00
 41         3.1933641342e-01
 42         0.0000000000e+00
 43         0.0000000000e+00
 44         0.0000000000e+00
 45         6.8694756901e-02
 46         0.0000000000e+00
 47         0.0000000000e+00
 48        -9.7432228007e-01
 49         0.0000000000e+00
 50         0.0000000000e+00
 51         0.0000000000e+00
 52         2.0828129054e-01
 53         0.0000000000e+00
 54         0.0000000000e+00
 55         0.0000000000e+00
 56         0.0000000000e+00
 57         0.0000000000e+00
 58         0.0000000000e+00
 59         0.0000000000e+00
 60         7.1710804577e-02
 61         0.0000000000e+00
 62         0.0000000000e+00
 63        -1.8912033487e-01
 64         0.0000000000e+00
 65         0.0000000000e+00
 66        -7.6565893355e-02
 67         0.0000000000e+00
 68         0.0000000000e+00
 69         0.0000000000e+00
 70         7.9821500830e-02
 71         0.0000000000e+00
 72         0.0000000000e+00
 73         1.2769694788e-01
 74         0.0000000000e+00
 75         4.4405462010e-02
 76         0.0000000000e+00
 77         0.0000000000e+00
 78         1.6994665180e-01
 79         0.0000000000e+00
 80         1.5921039416e-01
 81         0.0000000000e+00
 82         0.0000000000e+00
 83        -1.4001429855e-01
 84         3.0366851401e-01
 85         0.0000000000e+00
 86         0.0000000000e+00
 87         0.0000000000e+00
 88         0.0000000000e+00
 89         0.0000000000e+00
 90         7.1710804577e-02
 91         0.0000000000e+00
 92         0.0000000000e+00
 93        -1.8912033487e-01
 94         0.0000000000e+00
 95         0.0000000000e+00
 96        -7.6565893355e-02
 97         0.0000000000e+00
 98         0.0000000000e+00
 99         0.0000000000e+00
100         7.9821500830e-02
101         0.0000000000e+00
102         0.0000000000e+00
103        -1.2769694788e-01
104         0.0000000000e+00
105         4.4405462010e-02
106         0.0000000000e+00
107         0.0000000000e+00
108        -1.6994665180e-01
109         0.0000000000e+00
110         1.5921039416e-01
111         0.0000000000e+00
112         0.0000000000e+00
113         1.4001429855e-01
114         3.0366851401e-01
115         0.0000000000e+00
 Sym= A1
 Ene=         9.5783387408e+00
 Spin= Beta
 Occup=         0.0000000000e+00
  1         1.7069189484e-01
  2         2.9522225125e-01
  3         2.0590800994e+00
  4        -5.6622303799e+00
  5        -4.8807004592e+00
  6         0.0000000000e+00
  7         0.0000000000e+00
  8         5.6004269064e-01
  9         0.0000000000e+00
 10         0.0000000000e+00
 11        -8.2259064738e-01
 12         0.0000000000e+00
 13         0.0000000000e+00
 14         3.3834397280e+00
 15         0.0000000000e+00
 16         0.0000000000e+00
 17         8.7216742688e-01
 18         1.6386355414e-01
 19         0.0000000000e+00
 20         0.0000000000e+00
 21         1.3402986980e-01
 22         0.0000000000e+00
 23         2.2553001039e-01
 24         0.0000000000e+00
 25         0.0000000000e+00
 26         7.8610632266e-01
 27         0.0000000000e+00
 28         5.2899656470e-01
 29         0.0000000000e+00
 30         0.0000000000e+00
 31         1.7232535871e+00
 32         0.0000000000e+00
 33         7.7085588077e-02
 34         0.0000000000e+00
 35         0.0000000000e+00
 36         1.7092715691e-01
 37         0.0000000000e+00
 38         0.0000000000e+00
 39         0.0000000000e+00
 40        -9.1717974887e-01
 41         0.0000000000e+00
 42         0.0000000000e+00
 43        -1.0375225826e+00
 44         0.0000000000e+00
 45         0.0000000000e+00
 46         0.0000000000e+00
 47         6.0559684427e-01
 48         0.0000000000e+00
 49         0.0000000000e+00
 50        -2.3020019865e-01
 51         0.0000000000e+00
 52         0.0000000000e+00
 53         0.0000000000e+00
 54        -2.0457282564e-01
 55         0.0000000000e+00
 56        -6.1964121610e-01
 57         2.7674289160e+00
 58         2.9354251299e+00
 59         9.3431206353e-02
 60         0.0000000000e+00
 61        -1.6281076243e-02
 62        -2.2038401337e-01
 63         0.0000000000e+00
 64        -1.3334830158e+00
 65         1.6564316432e+00
 66         0.0000000000e+00
 67        -9.4060955525e-01
 68         7.6904839413e-01
 69         1.6303709013e-01
 70         0.0000000000e+00
 71        -4.7197519259e-01
 72         5.7621795003e-03
 73         0.0000000000e+00
 74         1.5181995771e-01
 75         0.0000000000e+00
 76        -5.5381339199e-01
 77        -2.1622241254e-01
 78         0.0000000000e+00
 79        -8.4449278791e-02
 80         0.0000000000e+00
 81        -2.5834039204e-01
 82        -1.7620311026e-01
 83         0.0000000000e+00
 84         0.0000000000e+00
 85        -1.6233234695e-01
 86        -6.1964121610e-01
 87         2.7674289160e+00
 88         2.9354251299e+00
 89         9.3431206353e-02
 90         0.0000000000e+00
 91         1.6281076243e-02
 92        -2.2038401337e-01
 93         0.0000000000e+00
 94         1.3334830158e+00
 95         1.6564316432e+00
 96         0.0000000000e+00
 97         9.4060955525e-01
 98         7.6904839413e-01
 99         1.6303709013e-01
100         0.0000000000e+00
101         4.7197519259e-01
102         5.7621795003e-03
103         0.0000000000e+00
104         1.5181995771e-01
105         0.0000000000e+00
106         5.5381339199e-01
107        -2.1622241254e-01
108         0.0000000000e+00
109        -8.4449278791e-02
110         0.0000000000e+00
111         2.5834039204e-01
112        -1.7620311026e-01
113         0.0000000000e+00
114         0.0000000000e+00
115         1.6233234695e-01
 Sym= B2
 Ene=         9.7735898530e+00
 Spin= Beta
 Occup=         0.0000000000e+00
  1         0.0000000000e+00
  2         0.0000000000e+00
  3         0.0000000000e+00
  4         0.0000000000e+00
  5         0.0000000000e+00
  6         0.0000000000e+00
  7         7.8186594866e-01
  8         0.0000000000e+00
  9         0.0000000000e+00
 10        -1.6056180280e+00
 11         0.0000000000e+00
 12         0.0000000000e+00
 13         7.5754501948e+00
 14         0.0000000000e+00
 15         0.0000000000e+00
 16         1.8482635211e+00
 17         0.0000000000e+00
 18         0.0000000000e+00
 19         0.0000000000e+00
 20        -1.7329210336e-01
 21         0.0000000000e+00
 22         0.0000000000e+00
 23         0.0000000000e+00
 24         0.0000000000e+00
 25        -1.0076716354e+00
 26         0.0000000000e+00
 27         0.0000000000e+00
 28         0.0000000000e+00
 29         0.0000000000e+00
 30        -3.1315116466e+00
 31         0.0000000000e+00
 32         0.0000000000e+00
 33         0.0000000000e+00
 34         0.0000000000e+00
 35        -1.2899056513e-02
 36         0.0000000000e+00
 37         0.0000000000e+00
 38         0.0000000000e+00
 39         3.9079090557e-02
 40         0.0000000000e+00
 41         0.0000000000e+00
 42         4.8632617024e-01
 43         0.0000000000e+00
 44         0.0000000000e+00
 45         0.0000000000e+00
 46        -7.9934924051e-01
 47         0.0000000000e+00
 48         0.0000000000e+00
 49         8.3286595165e-02
 50         0.0000000000e+00
 51         0.0000000000e+00
 52         0.0000000000e+00
 53         3.2624797384e-01
 54         0.0000000000e+00
 55         0.0000000000e+00
 56         1.0671455644e+00
 57        -4.2427045057e+00
 58        -3.4153755666e+00
 59        -1.6228350157e-01
 60         0.0000000000e+00
 61        -1.8806731292e-01
 62         2.2127821097e-01
 63         0.0000000000e+00
 64         2.2100279732e+00
 65        -1.7048743723e+00
 66         0.0000000000e+00
 67         9.4835170858e-01
 68        -9.6612476438e-01
 69        -4.7978066985e-03
 70         0.0000000000e+00
 71         2.8379773356e-01
 72         4.0366742185e-01
 73         0.0000000000e+00
 74        -1.5657793599e-01
 75         0.0000000000e+00
 76         6.2703405052e-01
 77         6.5729051460e-02
 78         0.0000000000e+00
 79         1.4625579345e-02
 80         0.0000000000e+00
 81         9.3319067015e-02
 82         1.0856319323e-01
 83         0.0000000000e+00
 84         0.0000000000e+00
 85         1.2031732676e-02
 86        -1.0671455644e+00
 87         4.2427045057e+00
 88         3.4153755666e+00
 89         1.6228350157e-01
 90         0.0000000000e+00
 91        -1.8806731292e-01
 92        -2.2127821097e-01
 93         0.0000000000e+00
 94         2.2100279732e+00
 95         1.7048743723e+00
 96         0.0000000000e+00
 97         9.4835170858e-01
 98         9.6612476438e-01
 99         4.7978066985e-03
100         0.0000000000e+00
101         2.8379773356e-01
102        -4.0366742185e-01
103         0.0000000000e+00
104         1.5657793599e-01
105         0.0000000000e+00
106         6.2703405052e-01
107        -6.5729051460e-02
108         0.0000000000e+00
109        -1.4625579345e-02
110         0.0000000000e+00
111         9.3319067015e-02
112        -1.0856319323e-01
113         0.0000000000e+00
114         0.0000000000e+00
115         1.2031732676e-02
 Sym= A1
 Ene=         9.7995429290e+00
 Spin= Beta
 Occup=         0.0000000000e+00
  1         1.4186959008e-01
  2         2.8934819381e-01
  3         2.0481427077e+00
  4        -5.3583112141e+00
  5        -5.4633468991e+00
  6         0.0000000000e+00
  7         0.0000000000e+00
  8         6.2989451255e-01
  9         0.0000000000e+00
 10         0.0000000000e+00
 11        -1.1941272840e+00
 12         0.0000000000e+00
 13         0.0000000000e+00
 14         4.9304480550e+00
 15         0.0000000000e+00
 16         0.0000000000e+00
 17         1.2782917890e+00
 18        -1.8510488515e-01
 19         0.0000000000e+00
 20         0.0000000000e+00
 21         4.1679833789e-02
 22         0.0000000000e+00
 23        -1.7274981586e-01
 24         0.0000000000e+00
 25         0.0000000000e+00
 26         3.9736161634e-01
 27         0.0000000000e+00
 28        -1.0644552476e+00
 29         0.0000000000e+00
 30         0.0000000000e+00
 31         1.0963617497e+00
 32         0.0000000000e+00
 33         2.0683050069e-01
 34         0.0000000000e+00
 35         0.0000000000e+00
 36         3.0189533377e-02
 37         0.0000000000e+00
 38         0.0000000000e+00
 39         0.0000000000e+00
 40         7.2636993349e-02
 41         0.0000000000e+00
 42         0.0000000000e+00
 43        -7.7392254239e-01
 44         0.0000000000e+00
 45         0.0000000000e+00
 46         0.0000000000e+00
 47        -3.2900262351e-01
 48         0.0000000000e+00
 49         0.0000000000e+00
 50         5.3665906164e-01
 51         0.0000000000e+00
 52         0.0000000000e+00
 53         0.0000000000e+00
 54        -1.7272798639e-01
 55         0.0000000000e+00
 56        -7.4656472923e-01
 57         2.6023104569e+00
 58         3.3205726107e+00
 59         7.8266794097e-02
 60         0.0000000000e+00
 61         4.2714467259e-01
 62         2.7790443828e-02
 63         0.0000000000e+00
 64        -2.1821753119e+00
 65         6.1382878372e-01
 66         0.0000000000e+00
 67        -1.1895980638e+00
 68         4.9545740466e-01
 69        -9.4438704322e-02
 70         0.0000000000e+00
 71        -5.3378834310e-02
 72        -3.4573171307e-01
 73         0.0000000000e+00
 74        -3.1087680963e-01
 75         0.0000000000e+00
 76        -2.8258960295e-01
 77        -5.8306082764e-01
 78         0.0000000000e+00
 79         6.2885676831e-02
 80         0.0000000000e+00
 81         1.6003796674e-01
 82        -9.9047534908e-04
 83         0.0000000000e+00
 84         0.0000000000e+00
 85         2.7908223150e-01
 86        -7.4656472923e-01
 87         2.6023104569e+00
 88         3.3205726107e+00
 89         7.8266794097e-02
 90         0.0000000000e+00
 91        -4.2714467259e-01
 92         2.7790443828e-02
 93         0.0000000000e+00
 94         2.1821753119e+00
 95         6.1382878372e-01
 96         0.0000000000e+00
 97         1.1895980638e+00
 98         4.9545740466e-01
 99        -9.4438704322e-02
100         0.0000000000e+00
101         5.3378834310e-02
102        -3.4573171307e-01
103         0.0000000000e+00
104        -3.1087680963e-01
105         0.0000000000e+00
106         2.8258960295e-01
107        -5.8306082764e-01
108         0.0000000000e+00
109         6.2885676831e-02
110         0.0000000000e+00
111        -1.6003796674e-01
112        -9.9047534908e-04
113         0.0000000000e+00
114         0.0000000000e+00
115        -2.7908223150e-01
 Sym= B1
 Ene=         1.0022750568e+01
 Spin= Beta
 Occup=         0.0000000000e+00
  1         0.0000000000e+00
  2         0.0000000000e+00
  3         0.0000000000e+00
  4         0.0000000000e+00
  5         0.0000000000e+00
  6         1.3300112965e+00
  7         0.0000000000e+00
  8         0.0000000000e+00
  9        -1.7363847058e+00
 10         0.0000000000e+00
 11         0.0000000000e+00
 12         1.0492796755e+00
 13         0.0000000000e+00
 14         0.0000000000e+00
 15        -2.8368773468e-01
 16         0.0000000000e+00
 17         0.0000000000e+00
 18         0.0000000000e+00
 19        -9.4445924692e-03
 20         0.0000000000e+00
 21         0.0000000000e+00
 22         0.0000000000e+00
 23         0.0000000000e+00
 24         8.4698268187e-02
 25         0.0000000000e+00
 26         0.0000000000e+00
 27         0.0000000000e+00
 28         0.0000000000e+00
 29        -1.0779761363e-01
 30         0.0000000000e+00
 31         0.0000000000e+00
 32         0.0000000000e+00
 33         0.0000000000e+00
 34         9.0790182794e-02
 35         0.0000000000e+00
 36         0.0000000000e+00
 37         0.0000000000e+00
 38        -2.5593751713e-01
 39         0.0000000000e+00
 40         0.0000000000e+00
 41        -2.7336126611e-02
 42         0.0000000000e+00
 43         0.0000000000e+00
 44         0.0000000000e+00
 45         4.4080919872e-02
 46         0.0000000000e+00
 47         0.0000000000e+00
 48         7.0061906327e-02
 49         0.0000000000e+00
 50         0.0000000000e+00
 51         0.0000000000e+00
 52         2.0895847241e-01
 53         0.0000000000e+00
 54         0.0000000000e+00
 55         0.0000000000e+00
 56         0.0000000000e+00
 57         0.0000000000e+00
 58         0.0000000000e+00
 59         0.0000000000e+00
 60        -5.1562370398e-02
 61         0.0000000000e+00
 62         0.0000000000e+00
 63        -4.2874858375e-02
 64         0.0000000000e+00
 65         0.0000000000e+00
 66        -1.2417060341e-02
 67         0.0000000000e+00
 68         0.0000000000e+00
 69         0.0000000000e+00
 70        -4.6886124548e-02
 71         0.0000000000e+00
 72         0.0000000000e+00
 73         1.3261737464e-02
 74         0.0000000000e+00
 75         9.6512443462e-03
 76         0.0000000000e+00
 77         0.0000000000e+00
 78         2.8555921846e-02
 79         0.0000000000e+00
 80         2.1452723526e-02
 81         0.0000000000e+00
 82         0.0000000000e+00
 83        -8.0535276401e-02
 84        -1.0448736659e-01
 85         0.0000000000e+00
 86         0.0000000000e+00
 87         0.0000000000e+00
 88         0.0000000000e+00
 89         0.0000000000e+00
 90        -5.1562370398e-02
 91         0.0000000000e+00
 92         0.0000000000e+00
 93        -4.2874858375e-02
 94         0.0000000000e+00
 95         0.0000000000e+00
 96        -1.2417060341e-02
 97         0.0000000000e+00
 98         0.0000000000e+00
 99         0.0000000000e+00
100        -4.6886124548e-02
101         0.0000000000e+00
102         0.0000000000e+00
103        -1.3261737464e-02
104         0.0000000000e+00
105         9.6512443462e-03
106         0.0000000000e+00
107         0.0000000000e+00
108        -2.8555921846e-02
109         0.0000000000e+00
110         2.1452723526e-02
111         0.0000000000e+00
112         0.0000000000e+00
113         8.0535276401e-02
114        -1.0448736659e-01
115         0.0000000000e+00
 Sym= A2
 Ene=         1.0209966805e+01
 Spin= Beta
 Occup=         0.0000000000e+00
  1         0.0000000000e+00
  2         0.0000000000e+00
  3         0.0000000000e+00
  4         0.0000000000e+00
  5         0.0000000000e+00
  6         0.0000000000e+00
  7         0.0000000000e+00
  8         0.0000000000e+00
  9         0.0000000000e+00
 10         0.0000000000e+00
 11         0.0000000000e+00
 12         0.0000000000e+00
 13         0.0000000000e+00
 14         0.0000000000e+00
 15         0.0000000000e+00
 16         0.0000000000e+00
 17         0.0000000000e+00
 18         0.0000000000e+00
 19         0.0000000000e+00
 20         0.0000000000e+00
 21         0.0000000000e+00
 22         2.5131613594e-01
 23         0.0000000000e+00
 24         0.0000000000e+00
 25         0.0000000000e+00
 26         0.0000000000e+00
 27         3.0443198975e-02
 28         0.0000000000e+00
 29         0.0000000000e+00
 30         0.0000000000e+00
 31         0.0000000000e+00
 32         6.2582516992e-01
 33         0.0000000000e+00
 34         0.0000000000e+00
 35         0.0000000000e+00
 36         0.0000000000e+00
 37         9.0710959750e-02
 38         0.0000000000e+00
 39         0.0000000000e+00
 40         0.0000000000e+00
 41         0.0000000000e+00
 42         0.0000000000e+00
 43         0.0000000000e+00
 44        -3.2381292819e-01
 45         0.0000000000e+00
 46         0.0000000000e+00
 47         0.0000000000e+00
 48         0.0000000000e+00
 49         0.0000000000e+00
 50         0.0000000000e+00
 51        -4.4437169078e-01
 52         0.0000000000e+00
 53         0.0000000000e+00
 54         0.0000000000e+00
 55        -9.8757524089e-01
 56         0.0000000000e+00
 57         0.0000000000e+00
 58         0.0000000000e+00
 59         0.0000000000e+00
 60         2.9395097123e-02
 61         0.0000000000e+00
 62         0.0000000000e+00
 63        -3.5777103489e-01
 64         0.0000000000e+00
 65         0.0000000000e+00
 66        -1.3911418392e-01
 67         0.0000000000e+00
 68         0.0000000000e+00
 69         0.0000000000e+00
 70        -2.5147259621e-01
 71         0.0000000000e+00
 72         0.0000000000e+00
 73         1.1984168052e-01
 74         0.0000000000e+00
 75        -1.9452637998e-01
 76         0.0000000000e+00
 77         0.0000000000e+00
 78         6.9953772691e-02
 79         0.0000000000e+00
 80        -3.1030050047e-01
 81         0.0000000000e+00
 82         0.0000000000e+00
 83         1.5990039998e-01
 84        -7.7097061249e-02
 85         0.0000000000e+00
 86         0.0000000000e+00
 87         0.0000000000e+00
 88         0.0000000000e+00
 89         0.0000000000e+00
 90        -2.9395097123e-02
 91         0.0000000000e+00
 92         0.0000000000e+00
 93         3.5777103489e-01
 94         0.0000000000e+00
 95         0.0000000000e+00
 96         1.3911418392e-01
 97         0.0000000000e+00
 98         0.0000000000e+00
 99         0.0000000000e+00
100         2.5147259621e-01
101         0.0000000000e+00
102         0.0000000000e+00
103         1.1984168052e-01
104         0.0000000000e+00
105         1.9452637998e-01
106         0.0000000000e+00
107         0.0000000000e+00
108         6.9953772691e-02
109         0.0000000000e+00
110         3.1030050047e-01
111         0.0000000000e+00
112         0.0000000000e+00
113         1.5990039998e-01
114         7.7097061249e-02
115         0.0000000000e+00
 Sym= A1
 Ene=         1.0211989466e+01
 Spin= Beta
 Occup=         0.0000000000e+00
  1         4.3713707856e-02
  2         6.6640733738e-02
  3         5.9394107112e-02
  4         9.3079336150e-01
  5         5.3443171219e-01
  6         0.0000000000e+00
  7         0.0000000000e+00
  8        -3.0219950952e-01
  9         0.0000000000e+00
 10         0.0000000000e+00
 11         3.3009567162e-01
 12         0.0000000000e+00
 13         0.0000000000e+00
 14        -9.0040188961e-01
 15         0.0000000000e+00
 16         0.0000000000e+00
 17        -1.1294933713e-01
 18         7.3799190593e-02
 19         0.0000000000e+00
 20         0.0000000000e+00
 21         2.6023785776e-01
 22         0.0000000000e+00
 23         3.6931636566e-02
 24         0.0000000000e+00
 25         0.0000000000e+00
 26        -8.4589789210e-02
 27         0.0000000000e+00
 28         3.9890816242e-01
 29         0.0000000000e+00
 30         0.0000000000e+00
 31         5.4394291242e-01
 32         0.0000000000e+00
 33         1.2297856220e-01
 34         0.0000000000e+00
 35         0.0000000000e+00
 36         1.1867504282e-01
 37         0.0000000000e+00
 38         0.0000000000e+00
 39         0.0000000000e+00
 40        -1.6656021674e-01
 41         0.0000000000e+00
 42         0.0000000000e+00
 43        -3.6626453963e-01
 44         0.0000000000e+00
 45         0.0000000000e+00
 46         0.0000000000e+00
 47        -1.5196253705e-01
 48         0.0000000000e+00
 49         0.0000000000e+00
 50        -6.1044594358e-03
 51         0.0000000000e+00
 52         0.0000000000e+00
 53         0.0000000000e+00
 54        -9.9835251843e-01
 55         0.0000000000e+00
 56         2.2757714218e-01
 57         1.2519294747e-01
 58        -7.2983225643e-01
 59         3.5210398992e-02
 60         0.0000000000e+00
 61        -4.1069077919e-01
 62         2.3694137548e-01
 63         0.0000000000e+00
 64         6.1011003036e-01
 65        -6.1971407349e-03
 66         0.0000000000e+00
 67         3.5295122641e-01
 68        -7.9779955607e-02
 69         2.0226128934e-01
 70         0.0000000000e+00
 71        -1.5411201674e-01
 72        -7.2726296797e-02
 73         0.0000000000e+00
 74         2.0219884831e-01
 75         0.0000000000e+00
 76         2.6437878095e-01
 77         2.1117190732e-01
 78         0.0000000000e+00
 79         2.3364772191e-01
 80         0.0000000000e+00
 81        -5.1213117383e-02
 82        -2.7840053884e-02
 83         0.0000000000e+00
 84         0.0000000000e+00
 85         1.1963899266e-01
 86         2.2757714218e-01
 87         1.2519294747e-01
 88        -7.2983225643e-01
 89         3.5210398992e-02
 90         0.0000000000e+00
 91         4.1069077919e-01
 92         2.3694137548e-01
 93         0.0000000000e+00
 94        -6.1011003036e-01
 95        -6.1971407349e-03
 96         0.0000000000e+00
 97        -3.5295122641e-01
 98        -7.9779955607e-02
 99         2.0226128934e-01
100         0.0000000000e+00
101         1.5411201674e-01
102        -7.2726296797e-02
103         0.0000000000e+00
104         2.0219884831e-01
105         0.0000000000e+00
106        -2.6437878095e-01
107         2.1117190732e-01
108         0.0000000000e+00
109         2.3364772191e-01
110         0.0000000000e+00
111         5.1213117383e-02
112        -2.7840053884e-02
113         0.0000000000e+00
114         0.0000000000e+00
115        -1.1963899266e-01
 Sym= B2
 Ene=         1.0564549788e+01
 Spin= Beta
 Occup=         0.0000000000e+00
  1         0.0000000000e+00
  2         0.0000000000e+00
  3         0.0000000000e+00
  4         0.0000000000e+00
  5         0.0000000000e+00
  6         0.0000000000e+00
  7         1.1127739845e-01
  8         0.0000000000e+00
  9         0.0000000000e+00
 10         1.5024396714e-01
 11         0.0000000000e+00
 12         0.0000000000e+00
 13         1.1643293693e+00
 14         0.0000000000e+00
 15         0.0000000000e+00
 16         1.4854517659e-01
 17         0.0000000000e+00
 18         0.0000000000e+00
 19         0.0000000000e+00
 20         3.4355455637e-01
 21         0.0000000000e+00
 22         0.0000000000e+00
 23         0.0000000000e+00
 24         0.0000000000e+00
 25        -3.4037987261e-01
 26         0.0000000000e+00
 27         0.0000000000e+00
 28         0.0000000000e+00
 29         0.0000000000e+00
 30         3.0639977035e-01
 31         0.0000000000e+00
 32         0.0000000000e+00
 33         0.0000000000e+00
 34         0.0000000000e+00
 35         6.8796461153e-02
 36         0.0000000000e+00
 37         0.0000000000e+00
 38         0.0000000000e+00
 39         2.6502176431e-02
 40         0.0000000000e+00
 41         0.0000000000e+00
 42        -5.3544682264e-01
 43         0.0000000000e+00
 44         0.0000000000e+00
 45         0.0000000000e+00
 46         2.4126657045e-01
 47         0.0000000000e+00
 48         0.0000000000e+00
 49         4.0512273605e-01
 50         0.0000000000e+00
 51         0.0000000000e+00
 52         0.0000000000e+00
 53        -8.7156699082e-01
 54         0.0000000000e+00
 55         0.0000000000e+00
 56         3.6675747860e-01
 57         5.7774884068e-02
 58        -1.3924689299e+00
 59         9.0844027173e-02
 60         0.0000000000e+00
 61        -6.3255988765e-01
 62         4.4051428407e-01
 63         0.0000000000e+00
 64         6.4692784382e-01
 65        -7.6223474043e-01
 66         0.0000000000e+00
 67         5.5371465818e-01
 68        -3.7207912172e-01
 69        -7.5332527229e-02
 70         0.0000000000e+00
 71        -8.3257389612e-02
 72        -3.2859850444e-01
 73         0.0000000000e+00
 74        -5.9495661253e-02
 75         0.0000000000e+00
 76         5.4285296898e-01
 77         3.3308366791e-01
 78         0.0000000000e+00
 79         1.4948121534e-01
 80         0.0000000000e+00
 81         7.9448372952e-02
 82         3.6626675399e-02
 83         0.0000000000e+00
 84         0.0000000000e+00
 85         1.4165142337e-01
 86        -3.6675747860e-01
 87        -5.7774884068e-02
 88         1.3924689299e+00
 89        -9.0844027173e-02
 90         0.0000000000e+00
 91        -6.3255988765e-01
 92        -4.4051428407e-01
 93         0.0000000000e+00
 94         6.4692784382e-01
 95         7.6223474043e-01
 96         0.0000000000e+00
 97         5.5371465818e-01
 98         3.7207912172e-01
 99         7.5332527229e-02
100         0.0000000000e+00
101        -8.3257389612e-02
102         3.2859850444e-01
103         0.0000000000e+00
104         5.9495661253e-02
105         0.0000000000e+00
106         5.4285296898e-01
107        -3.3308366791e-01
108         0.0000000000e+00
109        -1.4948121534e-01
110         0.0000000000e+00
111         7.9448372952e-02
112        -3.6626675399e-02
113         0.0000000000e+00
114         0.0000000000e+00
115         1.4165142337e-01
 Sym= A2
 Ene=         1.0700462643e+01
 Spin= Beta
 Occup=         0.0000000000e+00
  1         0.0000000000e+00
  2         0.0000000000e+00
  3         0.0000000000e+00
  4         0.0000000000e+00
  5         0.0000000000e+00
  6         0.0000000000e+00
  7         0.0000000000e+00
  8         0.0000000000e+00
  9         0.0000000000e+00
 10         0.0000000000e+00
 11         0.0000000000e+00
 12         0.0000000000e+00
 13         0.0000000000e+00
 14         0.0000000000e+00
 15         0.0000000000e+00
 16         0.0000000000e+00
 17         0.0000000000e+00
 18         0.0000000000e+00
 19         0.0000000000e+00
 20         0.0000000000e+00
 21         0.0000000000e+00
 22         4.8029902828e-01
 23         0.0000000000e+00
 24         0.0000000000e+00
 25         0.0000000000e+00
 26         0.0000000000e+00
 27        -2.8685331253e-02
 28         0.0000000000e+00
 29         0.0000000000e+00
 30         0.0000000000e+00
 31         0.0000000000e+00
 32         7.4116542887e-01
 33         0.0000000000e+00
 34         0.0000000000e+00
 35         0.0000000000e+00
 36         0.0000000000e+00
 37         8.2164901388e-03
 38         0.0000000000e+00
 39         0.0000000000e+00
 40         0.0000000000e+00
 41         0.0000000000e+00
 42         0.0000000000e+00
 43         0.0000000000e+00
 44        -8.0894251130e-01
 45         0.0000000000e+00
 46         0.0000000000e+00
 47         0.0000000000e+00
 48         0.0000000000e+00
 49         0.0000000000e+00
 50         0.0000000000e+00
 51         9.8045821962e-01
 52         0.0000000000e+00
 53         0.0000000000e+00
 54         0.0000000000e+00
 55        -3.1605795008e-01
 56         0.0000000000e+00
 57         0.0000000000e+00
 58         0.0000000000e+00
 59         0.0000000000e+00
 60         1.3479837188e-02
 61         0.0000000000e+00
 62         0.0000000000e+00
 63        -5.9290601024e-01
 64         0.0000000000e+00
 65         0.0000000000e+00
 66        -1.6817667847e-01
 67         0.0000000000e+00
 68         0.0000000000e+00
 69         0.0000000000e+00
 70        -1.4345556039e-01
 71         0.0000000000e+00
 72         0.0000000000e+00
 73         4.6306565347e-01
 74         0.0000000000e+00
 75        -1.3062308432e-01
 76         0.0000000000e+00
 77         0.0000000000e+00
 78         2.2647522363e-01
 79         0.0000000000e+00
 80         1.6274016006e-01
 81         0.0000000000e+00
 82         0.0000000000e+00
 83         1.2433623913e-01
 84         3.0048830167e-01
 85         0.0000000000e+00
 86         0.0000000000e+00
 87         0.0000000000e+00
 88         0.0000000000e+00
 89         0.0000000000e+00
 90        -1.3479837188e-02
 91         0.0000000000e+00
 92         0.0000000000e+00
 93         5.9290601024e-01
 94         0.0000000000e+00
 95         0.0000000000e+00
 96         1.6817667847e-01
 97         0.0000000000e+00
 98         0.0000000000e+00
 99         0.0000000000e+00
100         1.4345556039e-01
101         0.0000000000e+00
102         0.0000000000e+00
103         4.6306565347e-01
104         0.0000000000e+00
105         1.3062308432e-01
106         0.0000000000e+00
107         0.0000000000e+00
108         2.2647522363e-01
109         0.0000000000e+00
110        -1.6274016006e-01
111         0.0000000000e+00
112         0.0000000000e+00
113         1.2433623913e-01
114        -3.0048830167e-01
115         0.0000000000e+00
 Sym= A1
 Ene=         1.0945387601e+01
 Spin= Beta
 Occup=         0.0000000000e+00
  1         4.7046630935e-02
  2         5.3124568073e-02
  3         8.6262374695e-01
  4        -3.5546161426e+00
  5        -1.2760693857e+00
  6         0.0000000000e+00
  7         0.0000000000e+00
  8        -7.0997423439e-01
  9         0.0000000000e+00
 10         0.0000000000e+00
 11         1.0512674237e+00
 12         0.0000000000e+00
 13         0.0000000000e+00
 14         1.3504205091e+00
 15         0.0000000000e+00
 16         0.0000000000e+00
 17         4.0020951562e-01
 18        -1.1863928944e-01
 19         0.0000000000e+00
 20         0.0000000000e+00
 21        -1.0526163379e-02
 22         0.0000000000e+00
 23        -2.4196244988e-02
 24         0.0000000000e+00
 25         0.0000000000e+00
 26         4.2652967946e-01
 27         0.0000000000e+00
 28        -1.1077954813e-01
 29         0.0000000000e+00
 30         0.0000000000e+00
 31         5.8226859822e-01
 32         0.0000000000e+00
 33        -1.9722389868e-01
 34         0.0000000000e+00
 35         0.0000000000e+00
 36         8.6457870268e-01
 37         0.0000000000e+00
 38         0.0000000000e+00
 39         0.0000000000e+00
 40        -7.6156494309e-02
 41         0.0000000000e+00
 42         0.0000000000e+00
 43        -8.1700542169e-01
 44         0.0000000000e+00
 45         0.0000000000e+00
 46         0.0000000000e+00
 47         3.9072711533e-02
 48         0.0000000000e+00
 49         0.0000000000e+00
 50         1.4472428908e-01
 51         0.0000000000e+00
 52         0.0000000000e+00
 53         0.0000000000e+00
 54         5.1961686807e-02
 55         0.0000000000e+00
 56        -4.2540169766e-01
 57         1.5283055435e+00
 58         1.1285233375e+00
 59        -3.9121140005e-02
 60         0.0000000000e+00
 61         2.9821588447e-01
 62        -2.0231197112e-01
 63         0.0000000000e+00
 64        -1.2791597603e+00
 65         8.4170275685e-01
 66         0.0000000000e+00
 67        -3.0423697651e-01
 68         1.7522835204e-01
 69        -8.3287859184e-02
 70         0.0000000000e+00
 71        -1.0580439737e-01
 72        -9.5056713802e-02
 73         0.0000000000e+00
 74        -2.3606127518e-04
 75         0.0000000000e+00
 76        -4.1653063459e-01
 77        -3.6329885677e-01
 78         0.0000000000e+00
 79        -1.5284628397e-01
 80         0.0000000000e+00
 81        -9.4110841500e-03
 82        -1.4126003049e-01
 83         0.0000000000e+00
 84         0.0000000000e+00
 85         1.4854976551e-01
 86        -4.2540169766e-01
 87         1.5283055435e+00
 88         1.1285233375e+00
 89        -3.9121140005e-02
 90         0.0000000000e+00
 91        -2.9821588447e-01
 92        -2.0231197112e-01
 93         0.0000000000e+00
 94         1.2791597603e+00
 95         8.4170275685e-01
 96         0.0000000000e+00
 97         3.0423697651e-01
 98         1.7522835204e-01
 99        -8.3287859184e-02
100         0.0000000000e+00
101         1.0580439737e-01
102        -9.5056713802e-02
103         0.0000000000e+00
104        -2.3606127518e-04
105         0.0000000000e+00
106         4.1653063459e-01
107        -3.6329885677e-01
108         0.0000000000e+00
109        -1.5284628397e-01
110         0.0000000000e+00
111         9.4110841500e-03
112        -1.4126003049e-01
113         0.0000000000e+00
114         0.0000000000e+00
115        -1.4854976551e-01
 Sym= B2
 Ene=         1.1087679735e+01
 Spin= Beta
 Occup=         0.0000000000e+00
  1         0.0000000000e+00
  2         0.0000000000e+00
  3         0.0000000000e+00
  4         0.0000000000e+00
  5         0.0000000000e+00
  6         0.0000000000e+00
  7         5.3515874970e-01
  8         0.0000000000e+00
  9         0.0000000000e+00
 10        -8.2704847956e-01
 11         0.0000000000e+00
 12         0.0000000000e+00
 13        -1.0766121554e+00
 14         0.0000000000e+00
 15         0.0000000000e+00
 16        -2.6285936618e-01
 17         0.0000000000e+00
 18         0.0000000000e+00
 19         0.0000000000e+00
 20         4.0436825672e-03
 21         0.0000000000e+00
 22         0.0000000000e+00
 23         0.0000000000e+00
 24         0.0000000000e+00
 25         4.0634864051e-01
 26         0.0000000000e+00
 27         0.0000000000e+00
 28         0.0000000000e+00
 29         0.0000000000e+00
 30         4.4474022294e-01
 31         0.0000000000e+00
 32         0.0000000000e+00
 33         0.0000000000e+00
 34         0.0000000000e+00
 35         3.1427585343e-01
 36         0.0000000000e+00
 37         0.0000000000e+00
 38         0.0000000000e+00
 39        -9.9864151148e-01
 40         0.0000000000e+00
 41         0.0000000000e+00
 42        -1.7032525226e-01
 43         0.0000000000e+00
 44         0.0000000000e+00
 45         0.0000000000e+00
 46         7.6008552933e-01
 47         0.0000000000e+00
 48         0.0000000000e+00
 49         8.3505771653e-03
 50         0.0000000000e+00
 51         0.0000000000e+00
 52         0.0000000000e+00
 53        -1.5503390748e-01
 54         0.0000000000e+00
 55         0.0000000000e+00
 56        -2.5557811151e-01
 57         1.0238786088e+00
 58         4.0315426124e-01
 59        -1.2102171038e-02
 60         0.0000000000e+00
 61         1.4401131221e-01
 62        -1.3667532851e-01
 63         0.0000000000e+00
 64        -6.8177920972e-01
 65         6.1123631781e-01
 66         0.0000000000e+00
 67        -1.5873110109e-02
 68         7.6892503050e-02
 69         1.3315204163e-02
 70         0.0000000000e+00
 71        -9.8136180546e-02
 72        -5.5685879609e-02
 73         0.0000000000e+00
 74         1.3815087360e-01
 75         0.0000000000e+00
 76        -2.2523069293e-01
 77        -1.8613581937e-01
 78         0.0000000000e+00
 79         1.2668485034e-02
 80         0.0000000000e+00
 81        -9.6495160308e-02
 82        -1.5261959354e-01
 83         0.0000000000e+00
 84         0.0000000000e+00
 85         7.8467337627e-02
 86         2.5557811151e-01
 87        -1.0238786088e+00
 88        -4.0315426124e-01
 89         1.2102171038e-02
 90         0.0000000000e+00
 91         1.4401131221e-01
 92         1.3667532851e-01
 93         0.0000000000e+00
 94        -6.8177920972e-01
 95        -6.1123631781e-01
 96         0.0000000000e+00
 97        -1.5873110109e-02
 98        -7.6892503050e-02
 99        -1.3315204163e-02
100         0.0000000000e+00
101        -9.8136180546e-02
102         5.5685879609e-02
103         0.0000000000e+00
104        -1.3815087360e-01
105         0.0000000000e+00
106        -2.2523069293e-01
107         1.8613581937e-01
108         0.0000000000e+00
109        -1.2668485034e-02
110         0.0000000000e+00
111        -9.6495160308e-02
112         1.5261959354e-01
113         0.0000000000e+00
114         0.0000000000e+00
115         7.8467337627e-02
 Sym= B1
 Ene=         1.1140731949e+01
 Spin= Beta
 Occup=         0.0000000000e+00
  1         0.0000000000e+00
  2         0.0000000000e+00
  3         0.0000000000e+00
  4         0.0000000000e+00
  5         0.0000000000e+00
  6         1.4832772641e-01
  7         0.0000000000e+00
  8         0.0000000000e+00
  9         1.7687201609e-02
 10         0.0000000000e+00
 11         0.0000000000e+00
 12        -1.2811514310e+00
 13         0.0000000000e+00
 14         0.0000000000e+00
 15        -2.2548245398e-01
 16         0.0000000000e+00
 17         0.0000000000e+00
 18         0.0000000000e+00
 19         6.3584911132e-01
 20         0.0000000000e+00
 21         0.0000000000e+00
 22         0.0000000000e+00
 23         0.0000000000e+00
 24        -1.9997960788e-01
 25         0.0000000000e+00
 26         0.0000000000e+00
 27         0.0000000000e+00
 28         0.0000000000e+00
 29         8.7022187384e-01
 30         0.0000000000e+00
 31         0.0000000000e+00
 32         0.0000000000e+00
 33         0.0000000000e+00
 34         2.9088151480e-01
 35         0.0000000000e+00
 36         0.0000000000e+00
 37         0.0000000000e+00
 38        -1.8282857219e-01
 39         0.0000000000e+00
 40         0.0000000000e+00
 41        -2.8305038025e-01
 42         0.0000000000e+00
 43         0.0000000000e+00
 44         0.0000000000e+00
 45         8.9556519652e-01
 46         0.0000000000e+00
 47         0.0000000000e+00
 48        -1.8966881312e-01
 49         0.0000000000e+00
 50         0.0000000000e+00
 51         0.0000000000e+00
 52        -9.7760371502e-01
 53         0.0000000000e+00
 54         0.0000000000e+00
 55         0.0000000000e+00
 56         0.0000000000e+00
 57         0.0000000000e+00
 58         0.0000000000e+00
 59         0.0000000000e+00
 60        -5.0847456990e-02
 61         0.0000000000e+00
 62         0.0000000000e+00
 63         7.6304396179e-01
 64         0.0000000000e+00
 65         0.0000000000e+00
 66         3.0560919296e-01
 67         0.0000000000e+00
 68         0.0000000000e+00
 69         0.0000000000e+00
 70         3.3554584052e-01
 71         0.0000000000e+00
 72         0.0000000000e+00
 73        -3.2568565697e-01
 74         0.0000000000e+00
 75         2.3733004552e-01
 76         0.0000000000e+00
 77         0.0000000000e+00
 78        -3.9892456497e-01
 79         0.0000000000e+00
 80         1.3249110775e-01
 81         0.0000000000e+00
 82         0.0000000000e+00
 83        -2.7546645586e-01
 84        -1.4770779025e-01
 85         0.0000000000e+00
 86         0.0000000000e+00
 87         0.0000000000e+00
 88         0.0000000000e+00
 89         0.0000000000e+00
 90        -5.0847456990e-02
 91         0.0000000000e+00
 92         0.0000000000e+00
 93         7.6304396179e-01
 94         0.0000000000e+00
 95         0.0000000000e+00
 96         3.0560919296e-01
 97         0.0000000000e+00
 98         0.0000000000e+00
 99         0.0000000000e+00
100         3.3554584052e-01
101         0.0000000000e+00
102         0.0000000000e+00
103         3.2568565697e-01
104         0.0000000000e+00
105         2.3733004552e-01
106         0.0000000000e+00
107         0.0000000000e+00
108         3.9892456497e-01
109         0.0000000000e+00
110         1.3249110775e-01
111         0.0000000000e+00
112         0.0000000000e+00
113         2.7546645586e-01
114        -1.4770779025e-01
115         0.0000000000e+00
 Sym= B1
 Ene=         1.1311115186e+01
 Spin= Beta
 Occup=         0.0000000000e+00
  1         0.0000000000e+00
  2         0.0000000000e+00
  3         0.0000000000e+00
  4         0.0000000000e+00
  5         0.0000000000e+00
  6         1.1186246101e-01
  7         0.0000000000e+00
  8         0.0000000000e+00
  9        -1.5263761433e-01
 10         0.0000000000e+00
 11         0.0000000000e+00
 12         7.8074216257e-02
 13         0.0000000000e+00
 14         0.0000000000e+00
 15         2.5522467135e-02
 16         0.0000000000e+00
 17         0.0000000000e+00
 18         0.0000000000e+00
 19         1.7054899780e-01
 20         0.0000000000e+00
 21         0.0000000000e+00
 22         0.0000000000e+00
 23         0.0000000000e+00
 24        -8.9554548734e-02
 25         0.0000000000e+00
 26         0.0000000000e+00
 27         0.0000000000e+00
 28         0.0000000000e+00
 29        -1.6445440183e-01
 30         0.0000000000e+00
 31         0.0000000000e+00
 32         0.0000000000e+00
 33         0.0000000000e+00
 34        -1.1260460448e+00
 35         0.0000000000e+00
 36         0.0000000000e+00
 37         0.0000000000e+00
 38        -2.3265326961e-01
 39         0.0000000000e+00
 40         0.0000000000e+00
 41         7.2054223364e-01
 42         0.0000000000e+00
 43         0.0000000000e+00
 44         0.0000000000e+00
 45         3.1389233580e-01
 46         0.0000000000e+00
 47         0.0000000000e+00
 48        -2.2230877241e-01
 49         0.0000000000e+00
 50         0.0000000000e+00
 51         0.0000000000e+00
 52        -1.4493643313e-01
 53         0.0000000000e+00
 54         0.0000000000e+00
 55         0.0000000000e+00
 56         0.0000000000e+00
 57         0.0000000000e+00
 58         0.0000000000e+00
 59         0.0000000000e+00
 60         4.8566899813e-02
 61         0.0000000000e+00
 62         0.0000000000e+00
 63        -1.0560296674e-02
 64         0.0000000000e+00
 65         0.0000000000e+00
 66        -3.3458132739e-02
 67         0.0000000000e+00
 68         0.0000000000e+00
 69         0.0000000000e+00
 70         5.4980239814e-02
 71         0.0000000000e+00
 72         0.0000000000e+00
 73        -9.5577262055e-02
 74         0.0000000000e+00
 75         1.5661688335e-01
 76         0.0000000000e+00
 77         0.0000000000e+00
 78         1.7040155070e-01
 79         0.0000000000e+00
 80         1.0412468405e-01
 81         0.0000000000e+00
 82         0.0000000000e+00
 83        -1.1468215790e-01
 84         8.7570609456e-02
 85         0.0000000000e+00
 86         0.0000000000e+00
 87         0.0000000000e+00
 88         0.0000000000e+00
 89         0.0000000000e+00
 90         4.8566899813e-02
 91         0.0000000000e+00
 92         0.0000000000e+00
 93        -1.0560296674e-02
 94         0.0000000000e+00
 95         0.0000000000e+00
 96        -3.3458132739e-02
 97         0.0000000000e+00
 98         0.0000000000e+00
 99         0.0000000000e+00
100         5.4980239814e-02
101         0.0000000000e+00
102         0.0000000000e+00
103         9.5577262055e-02
104         0.0000000000e+00
105         1.5661688335e-01
106         0.0000000000e+00
107         0.0000000000e+00
108        -1.7040155070e-01
109         0.0000000000e+00
110         1.0412468405e-01
111         0.0000000000e+00
112         0.0000000000e+00
113         1.1468215790e-01
114         8.7570609456e-02
115         0.0000000000e+00
 Sym= A1
 Ene=         1.1451961680e+01
 Spin= Beta
 Occup=         0.0000000000e+00
  1         4.5887191572e-02
  2         1.2913780757e-01
  3         3.5742425148e-01
  4         1.1783981352e+00
  5        -4.9478827406e-01
  6         0.0000000000e+00
  7         0.0000000000e+00
  8         2.9893239362e-01
  9         0.0000000000e+00
 10         0.0000000000e+00
 11        -8.6844395196e-01
 12         0.0000000000e+00
 13         0.0000000000e+00
 14         9.3186664848e-01
 15         0.0000000000e+00
 16         0.0000000000e+00
 17         3.0775782743e-01
 18        -3.7340773701e-01
 19         0.0000000000e+00
 20         0.0000000000e+00
 21         3.4989974304e-01
 22         0.0000000000e+00
 23         1.8886889206e-01
 24         0.0000000000e+00
 25         0.0000000000e+00
 26        -4.4666776126e-01
 27         0.0000000000e+00
 28        -8.8756830684e-01
 29         0.0000000000e+00
 30         0.0000000000e+00
 31         4.2259031310e-02
 32         0.0000000000e+00
 33        -6.2352515526e-01
 34         0.0000000000e+00
 35         0.0000000000e+00
 36         1.0715667890e-01
 37         0.0000000000e+00
 38         0.0000000000e+00
 39         0.0000000000e+00
 40         3.1390265816e-01
 41         0.0000000000e+00
 42         0.0000000000e+00
 43        -4.4336844282e-01
 44         0.0000000000e+00
 45         0.0000000000e+00
 46         0.0000000000e+00
 47         4.5030614575e-01
 48         0.0000000000e+00
 49         0.0000000000e+00
 50         6.9249083053e-01
 51         0.0000000000e+00
 52         0.0000000000e+00
 53         0.0000000000e+00
 54        -1.4257536567e-02
 55         0.0000000000e+00
 56         2.7115305467e-01
 57         1.8899477140e-01
 58        -3.2237341035e-01
 59         6.6203365735e-02
 60         0.0000000000e+00
 61        -4.5212620372e-01
 62         4.3867366821e-01
 63         0.0000000000e+00
 64         2.0781980631e-01
 65        -7.8689168433e-01
 66         0.0000000000e+00
 67         3.0857768402e-02
 68        -3.3465063962e-01
 69        -1.7471894820e-01
 70         0.0000000000e+00
 71        -1.3715786937e-01
 72        -1.3560516052e-01
 73         0.0000000000e+00
 74        -2.1557573443e-01
 75         0.0000000000e+00
 76         5.7162630813e-01
 77         8.3229296519e-02
 78         0.0000000000e+00
 79        -3.9598481128e-02
 80         0.0000000000e+00
 81         1.2518668678e-01
 82         1.1110774102e-01
 83         0.0000000000e+00
 84         0.0000000000e+00
 85        -6.6246219850e-02
 86         2.7115305467e-01
 87         1.8899477140e-01
 88        -3.2237341035e-01
 89         6.6203365735e-02
 90         0.0000000000e+00
 91         4.5212620372e-01
 92         4.3867366821e-01
 93         0.0000000000e+00
 94        -2.0781980631e-01
 95        -7.8689168433e-01
 96         0.0000000000e+00
 97        -3.0857768402e-02
 98        -3.3465063962e-01
 99        -1.7471894820e-01
100         0.0000000000e+00
101         1.3715786937e-01
102        -1.3560516052e-01
103         0.0000000000e+00
104        -2.1557573443e-01
105         0.0000000000e+00
106        -5.7162630813e-01
107         8.3229296519e-02
108         0.0000000000e+00
109        -3.9598481128e-02
110         0.0000000000e+00
111        -1.2518668678e-01
112         1.1110774102e-01
113         0.0000000000e+00
114         0.0000000000e+00
115         6.6246219850e-02
 Sym= B1
 Ene=         1.1634790193e+01
 Spin= Beta
 Occup=         0.0000000000e+00
  1         0.0000000000e+00
  2         0.0000000000e+00
  3         0.0000000000e+00
  4         0.0000000000e+00
  5         0.0000000000e+00
  6         3.4110160780e-01
  7         0.0000000000e+00
  8         0.0000000000e+00
  9        -5.7278514742e-01
 10         0.0000000000e+00
 11         0.0000000000e+00
 12         6.1356792353e-01
 13         0.0000000000e+00
 14         0.0000000000e+00
 15         9.5674652171e-02
 16         0.0000000000e+00
 17         0.0000000000e+00
 18         0.0000000000e+00
 19         3.1403161761e-01
 20         0.0000000000e+00
 21         0.0000000000e+00
 22         0.0000000000e+00
 23         0.0000000000e+00
 24        -1.4012786680e-01
 25         0.0000000000e+00
 26         0.0000000000e+00
 27         0.0000000000e+00
 28         0.0000000000e+00
 29        -2.0912076722e-01
 30         0.0000000000e+00
 31         0.0000000000e+00
 32         0.0000000000e+00
 33         0.0000000000e+00
 34        -1.5505522347e-01
 35         0.0000000000e+00
 36         0.0000000000e+00
 37         0.0000000000e+00
 38         1.1265738658e+00
 39         0.0000000000e+00
 40         0.0000000000e+00
 41         7.1576083565e-02
 42         0.0000000000e+00
 43         0.0000000000e+00
 44         0.0000000000e+00
 45        -7.0555610102e-01
 46         0.0000000000e+00
 47         0.0000000000e+00
 48         2.0247583404e-02
 49         0.0000000000e+00
 50         0.0000000000e+00
 51         0.0000000000e+00
 52         8.0635287275e-02
 53         0.0000000000e+00
 54         0.0000000000e+00
 55         0.0000000000e+00
 56         0.0000000000e+00
 57         0.0000000000e+00
 58         0.0000000000e+00
 59         0.0000000000e+00
 60         9.0295357861e-03
 61         0.0000000000e+00
 62         0.0000000000e+00
 63        -2.2466298728e-01
 64         0.0000000000e+00
 65         0.0000000000e+00
 66        -1.4167839608e-01
 67         0.0000000000e+00
 68         0.0000000000e+00
 69         0.0000000000e+00
 70         4.9963262325e-02
 71         0.0000000000e+00
 72         0.0000000000e+00
 73        -6.3666458183e-02
 74         0.0000000000e+00
 75        -1.6850624456e-01
 76         0.0000000000e+00
 77         0.0000000000e+00
 78         1.3625218051e-01
 79         0.0000000000e+00
 80        -9.2082533868e-03
 81         0.0000000000e+00
 82         0.0000000000e+00
 83        -1.2223402647e-01
 84        -9.2150300392e-02
 85         0.0000000000e+00
 86         0.0000000000e+00
 87         0.0000000000e+00
 88         0.0000000000e+00
 89         0.0000000000e+00
 90         9.0295357861e-03
 91         0.0000000000e+00
 92         0.0000000000e+00
 93        -2.2466298728e-01
 94         0.0000000000e+00
 95         0.0000000000e+00
 96        -1.4167839608e-01
 97         0.0000000000e+00
 98         0.0000000000e+00
 99         0.0000000000e+00
100         4.9963262325e-02
101         0.0000000000e+00
102         0.0000000000e+00
103         6.3666458183e-02
104         0.0000000000e+00
105        -1.6850624456e-01
106         0.0000000000e+00
107         0.0000000000e+00
108        -1.3625218051e-01
109         0.0000000000e+00
110        -9.2082533868e-03
111         0.0000000000e+00
112         0.0000000000e+00
113         1.2223402647e-01
114        -9.2150300392e-02
115         0.0000000000e+00
 Sym= A1
 Ene=         1.1681725747e+01
 Spin= Beta
 Occup=         0.0000000000e+00
  1         4.9039782952e-02
  2         7.3605700546e-02
  3         5.4182135200e-01
  4        -1.5522694910e+00
  5        -1.3201271473e+00
  6         0.0000000000e+00
  7         0.0000000000e+00
  8        -4.3873373088e-01
  9         0.0000000000e+00
 10         0.0000000000e+00
 11         6.2791288398e-01
 12         0.0000000000e+00
 13         0.0000000000e+00
 14         2.8522775872e-01
 15         0.0000000000e+00
 16         0.0000000000e+00
 17         2.2769459486e-01
 18        -4.3736544427e-01
 19         0.0000000000e+00
 20         0.0000000000e+00
 21         2.4236192573e-01
 22         0.0000000000e+00
 23         2.4209630425e-01
 24         0.0000000000e+00
 25         0.0000000000e+00
 26        -3.4709574288e-02
 27         0.0000000000e+00
 28         5.3827604818e-01
 29         0.0000000000e+00
 30         0.0000000000e+00
 31         6.9717753050e-01
 32         0.0000000000e+00
 33         8.7789227577e-01
 34         0.0000000000e+00
 35         0.0000000000e+00
 36        -1.2467652754e-01
 37         0.0000000000e+00
 38         0.0000000000e+00
 39         0.0000000000e+00
 40        -9.8517815928e-01
 41         0.0000000000e+00
 42         0.0000000000e+00
 43        -3.8732383736e-01
 44         0.0000000000e+00
 45         0.0000000000e+00
 46         0.0000000000e+00
 47         5.0841782467e-01
 48         0.0000000000e+00
 49         0.0000000000e+00
 50         3.3856805446e-01
 51         0.0000000000e+00
 52         0.0000000000e+00
 53         0.0000000000e+00
 54         1.3393527275e-01
 55         0.0000000000e+00
 56         2.7823352764e-02
 57         7.3041655893e-01
 58         7.5757071117e-01
 59         3.8835321256e-02
 60         0.0000000000e+00
 61        -2.7136447648e-01
 62        -1.6065455448e-02
 63         0.0000000000e+00
 64        -7.1465878234e-02
 65         5.5841681277e-01
 66         0.0000000000e+00
 67        -2.1966954750e-01
 68         3.1500141591e-01
 69        -1.8971612229e-01
 70         0.0000000000e+00
 71        -1.3221898349e-01
 72        -9.3992977930e-02
 73         0.0000000000e+00
 74         1.4440176107e-01
 75         0.0000000000e+00
 76        -2.9601086830e-01
 77         1.3746159838e-01
 78         0.0000000000e+00
 79        -2.7845749983e-01
 80         0.0000000000e+00
 81         3.7887752901e-02
 82        -1.1254019281e-01
 83         0.0000000000e+00
 84         0.0000000000e+00
 85        -8.0725377386e-02
 86         2.7823352764e-02
 87         7.3041655893e-01
 88         7.5757071117e-01
 89         3.8835321256e-02
 90         0.0000000000e+00
 91         2.7136447648e-01
 92        -1.6065455448e-02
 93         0.0000000000e+00
 94         7.1465878234e-02
 95         5.5841681277e-01
 96         0.0000000000e+00
 97         2.1966954750e-01
 98         3.1500141591e-01
 99        -1.8971612229e-01
100         0.0000000000e+00
101         1.3221898349e-01
102        -9.3992977930e-02
103         0.0000000000e+00
104         1.4440176107e-01
105         0.0000000000e+00
106         2.9601086830e-01
107         1.3746159838e-01
108         0.0000000000e+00
109        -2.7845749983e-01
110         0.0000000000e+00
111        -3.7887752901e-02
112        -1.1254019281e-01
113         0.0000000000e+00
114         0.0000000000e+00
115         8.0725377386e-02
 Sym= A2
 Ene=         1.1752075532e+01
 Spin= Beta
 Occup=         0.0000000000e+00
  1         0.0000000000e+00
  2         0.0000000000e+00
  3         0.0000000000e+00
  4         0.0000000000e+00
  5         0.0000000000e+00
  6         0.0000000000e+00
  7         0.0000000000e+00
  8         0.0000000000e+00
  9         0.0000000000e+00
 10         0.0000000000e+00
 11         0.0000000000e+00
 12         0.0000000000e+00
 13         0.0000000000e+00
 14         0.0000000000e+00
 15         0.0000000000e+00
 16         0.0000000000e+00
 17         0.0000000000e+00
 18         0.0000000000e+00
 19         0.0000000000e+00
 20         0.0000000000e+00
 21         0.0000000000e+00
 22         2.2917455857e-01
 23         0.0000000000e+00
 24         0.0000000000e+00
 25         0.0000000000e+00
 26         0.0000000000e+00
 27        -9.8357090167e-02
 28         0.0000000000e+00
 29         0.0000000000e+00
 30         0.0000000000e+00
 31         0.0000000000e+00
 32        -5.9873575072e-01
 33         0.0000000000e+00
 34         0.0000000000e+00
 35         0.0000000000e+00
 36         0.0000000000e+00
 37        -1.1992248118e+00
 38         0.0000000000e+00
 39         0.0000000000e+00
 40         0.0000000000e+00
 41         0.0000000000e+00
 42         0.0000000000e+00
 43         0.0000000000e+00
 44         9.2712257815e-01
 45         0.0000000000e+00
 46         0.0000000000e+00
 47         0.0000000000e+00
 48         0.0000000000e+00
 49         0.0000000000e+00
 50         0.0000000000e+00
 51        -1.9300882117e-01
 52         0.0000000000e+00
 53         0.0000000000e+00
 54         0.0000000000e+00
 55         8.5202781370e-02
 56         0.0000000000e+00
 57         0.0000000000e+00
 58         0.0000000000e+00
 59         0.0000000000e+00
 60        -4.0532694892e-02
 61         0.0000000000e+00
 62         0.0000000000e+00
 63         4.1391946487e-01
 64         0.0000000000e+00
 65         0.0000000000e+00
 66         1.8474175688e-01
 67         0.0000000000e+00
 68         0.0000000000e+00
 69         0.0000000000e+00
 70        -3.9017109868e-02
 71         0.0000000000e+00
 72         0.0000000000e+00
 73         6.8731677692e-04
 74         0.0000000000e+00
 75         1.7003824382e-01
 76         0.0000000000e+00
 77         0.0000000000e+00
 78        -2.6268771159e-01
 79         0.0000000000e+00
 80        -7.2903348383e-02
 81         0.0000000000e+00
 82         0.0000000000e+00
 83         6.1379390655e-02
 84         5.8451098120e-02
 85         0.0000000000e+00
 86         0.0000000000e+00
 87         0.0000000000e+00
 88         0.0000000000e+00
 89         0.0000000000e+00
 90         4.0532694892e-02
 91         0.0000000000e+00
 92         0.0000000000e+00
 93        -4.1391946487e-01
 94         0.0000000000e+00
 95         0.0000000000e+00
 96        -1.8474175688e-01
 97         0.0000000000e+00
 98         0.0000000000e+00
 99         0.0000000000e+00
100         3.9017109868e-02
101         0.0000000000e+00
102         0.0000000000e+00
103         6.8731677692e-04
104         0.0000000000e+00
105        -1.7003824382e-01
106         0.0000000000e+00
107         0.0000000000e+00
108        -2.6268771159e-01
109         0.0000000000e+00
110         7.2903348383e-02
111         0.0000000000e+00
112         0.0000000000e+00
113         6.1379390655e-02
114        -5.8451098120e-02
115         0.0000000000e+00
 Sym= B2
 Ene=         1.2012784654e+01
 Spin= Beta
 Occup=         0.0000000000e+00
  1         0.0000000000e+00
  2         0.0000000000e+00
  3         0.0000000000e+00
  4         0.0000000000e+00
  5         0.0000000000e+00
  6         0.0000000000e+00
  7         1.8654250830e-01
  8         0.0000000000e+00
  9         0.0000000000e+00
 10        -4.6306114439e-01
 11         0.0000000000e+00
 12         0.0000000000e+00
 13         4.5361824313e-03
 14         0.0000000000e+00
 15         0.0000000000e+00
 16        -1.7930338400e-01
 17         0.0000000000e+00
 18         0.0000000000e+00
 19         0.0000000000e+00
 20        -6.5782195431e-02
 21         0.0000000000e+00
 22         0.0000000000e+00
 23         0.0000000000e+00
 24         0.0000000000e+00
 25         2.1950938481e-01
 26         0.0000000000e+00
 27         0.0000000000e+00
 28         0.0000000000e+00
 29         0.0000000000e+00
 30         6.5563704521e-01
 31         0.0000000000e+00
 32         0.0000000000e+00
 33         0.0000000000e+00
 34         0.0000000000e+00
 35         1.0555297927e+00
 36         0.0000000000e+00
 37         0.0000000000e+00
 38         0.0000000000e+00
 39         4.6474592762e-01
 40         0.0000000000e+00
 41         0.0000000000e+00
 42        -1.2641062016e+00
 43         0.0000000000e+00
 44         0.0000000000e+00
 45         0.0000000000e+00
 46        -5.5397175582e-01
 47         0.0000000000e+00
 48         0.0000000000e+00
 49         5.1098211386e-01
 50         0.0000000000e+00
 51         0.0000000000e+00
 52         0.0000000000e+00
 53         2.0318553170e-01
 54         0.0000000000e+00
 55         0.0000000000e+00
 56        -1.6332505237e-01
 57         4.6697295778e-01
 58         4.4162326676e-01
 59        -1.2273755679e-03
 60         0.0000000000e+00
 61         1.4985433768e-01
 62        -1.4061506981e-01
 63         0.0000000000e+00
 64        -7.4818300367e-01
 65        -2.2582687609e-01
 66         0.0000000000e+00
 67        -1.9717499745e-01
 68        -2.1595602610e-02
 69        -1.6428592345e-01
 70         0.0000000000e+00
 71         9.7840673179e-02
 72        -1.2328220852e-01
 73         0.0000000000e+00
 74        -3.5431951565e-01
 75         0.0000000000e+00
 76        -1.1034591868e-01
 77        -2.0383012872e-01
 78         0.0000000000e+00
 79        -5.2423632032e-02
 80         0.0000000000e+00
 81        -2.7035507551e-02
 82        -8.0248701687e-02
 83         0.0000000000e+00
 84         0.0000000000e+00
 85        -1.3722755373e-02
 86         1.6332505237e-01
 87        -4.6697295778e-01
 88        -4.4162326676e-01
 89         1.2273755679e-03
 90         0.0000000000e+00
 91         1.4985433768e-01
 92         1.4061506981e-01
 93         0.0000000000e+00
 94        -7.4818300367e-01
 95         2.2582687609e-01
 96         0.0000000000e+00
 97        -1.9717499745e-01
 98         2.1595602610e-02
 99         1.6428592345e-01
100         0.0000000000e+00
101         9.7840673179e-02
102         1.2328220852e-01
103         0.0000000000e+00
104         3.5431951565e-01
105         0.0000000000e+00
106        -1.1034591868e-01
107         2.0383012872e-01
108         0.0000000000e+00
109         5.2423632032e-02
110         0.0000000000e+00
111        -2.7035507551e-02
112         8.0248701687e-02
113         0.0000000000e+00
114         0.0000000000e+00
115        -1.3722755373e-02
 Sym= B2
 Ene=         1.2771082317e+01
 Spin= Beta
 Occup=         0.0000000000e+00
  1         0.0000000000e+00
  2         0.0000000000e+00
  3         0.0000000000e+00
  4         0.0000000000e+00
  5         0.0000000000e+00
  6         0.0000000000e+00
  7         3.9786912663e-02
  8         0.0000000000e+00
  9         0.0000000000e+00
 10         4.9921179308e-01
 11         0.0000000000e+00
 12         0.0000000000e+00
 13        -2.6766956838e+00
 14         0.0000000000e+00
 15         0.0000000000e+00
 16        -2.3799162592e-01
 17         0.0000000000e+00
 18         0.0000000000e+00
 19         0.0000000000e+00
 20         1.0959466449e-01
 21         0.0000000000e+00
 22         0.0000000000e+00
 23         0.0000000000e+00
 24         0.0000000000e+00
 25        -3.0103703863e-01
 26         0.0000000000e+00
 27         0.0000000000e+00
 28         0.0000000000e+00
 29         0.0000000000e+00
 30         2.8628249677e-01
 31         0.0000000000e+00
 32         0.0000000000e+00
 33         0.0000000000e+00
 34         0.0000000000e+00
 35         4.0147710239e-01
 36         0.0000000000e+00
 37         0.0000000000e+00
 38         0.0000000000e+00
 39         1.1698414708e-01
 40         0.0000000000e+00
 41         0.0000000000e+00
 42         1.2302204031e+00
 43         0.0000000000e+00
 44         0.0000000000e+00
 45         0.0000000000e+00
 46         9.0190201029e-01
 47         0.0000000000e+00
 48         0.0000000000e+00
 49        -1.2109589150e+00
 50         0.0000000000e+00
 51         0.0000000000e+00
 52         0.0000000000e+00
 53        -4.8527200658e-01
 54         0.0000000000e+00
 55         0.0000000000e+00
 56        -3.7702535721e-02
 57         8.9167377294e-01
 58         2.3737454247e-01
 59         1.9824328424e-02
 60         0.0000000000e+00
 61        -3.2030464149e-01
 62         3.7367907860e-02
 63         0.0000000000e+00
 64         5.6324546134e-01
 65         1.1691851858e+00
 66         0.0000000000e+00
 67         1.0471470338e-01
 68         2.6265488341e-01
 69         5.6684369965e-01
 70         0.0000000000e+00
 71        -3.2921388311e-01
 72         2.3497786745e-01
 73         0.0000000000e+00
 74         7.1566467709e-01
 75         0.0000000000e+00
 76        -1.6994202961e-01
 77         4.9672238145e-01
 78         0.0000000000e+00
 79         2.6496136002e-01
 80         0.0000000000e+00
 81        -6.1327667076e-01
 82         7.9543374122e-02
 83         0.0000000000e+00
 84         0.0000000000e+00
 85        -3.1736774025e-01
 86         3.7702535721e-02
 87        -8.9167377294e-01
 88        -2.3737454247e-01
 89        -1.9824328424e-02
 90         0.0000000000e+00
 91        -3.2030464149e-01
 92        -3.7367907860e-02
 93         0.0000000000e+00
 94         5.6324546134e-01
 95        -1.1691851858e+00
 96         0.0000000000e+00
 97         1.0471470338e-01
 98        -2.6265488341e-01
 99        -5.6684369965e-01
100         0.0000000000e+00
101        -3.2921388311e-01
102        -2.3497786745e-01
103         0.0000000000e+00
104        -7.1566467709e-01
105         0.0000000000e+00
106        -1.6994202961e-01
107        -4.9672238145e-01
108         0.0000000000e+00
109        -2.6496136002e-01
110         0.0000000000e+00
111        -6.1327667076e-01
112        -7.9543374122e-02
113         0.0000000000e+00
114         0.0000000000e+00
115        -3.1736774025e-01
 Sym= A1
 Ene=         1.2893137059e+01
 Spin= Beta
 Occup=         0.0000000000e+00
  1         1.2768855175e-01
  2        -5.6607680523e-02
  3        -8.0175495268e-01
  4        -9.8192869912e-01
  5         3.1459489987e-01
  6         0.0000000000e+00
  7         0.0000000000e+00
  8        -4.5175067521e-01
  9         0.0000000000e+00
 10         0.0000000000e+00
 11         1.2089705062e+00
 12         0.0000000000e+00
 13         0.0000000000e+00
 14        -7.7427921761e-01
 15         0.0000000000e+00
 16         0.0000000000e+00
 17         8.4407728566e-02
 18        -4.1102991483e-01
 19         0.0000000000e+00
 20         0.0000000000e+00
 21         7.7572061641e-01
 22         0.0000000000e+00
 23         4.5189132682e-01
 24         0.0000000000e+00
 25         0.0000000000e+00
 26        -2.9782880413e-01
 27         0.0000000000e+00
 28        -7.7725070984e-02
 29         0.0000000000e+00
 30         0.0000000000e+00
 31        -2.8209556828e-01
 32         0.0000000000e+00
 33        -4.1157899266e-01
 34         0.0000000000e+00
 35         0.0000000000e+00
 36        -6.4360896921e-01
 37         0.0000000000e+00
 38         0.0000000000e+00
 39         0.0000000000e+00
 40         4.1610707839e-01
 41         0.0000000000e+00
 42         0.0000000000e+00
 43         7.8500068599e-01
 44         0.0000000000e+00
 45         0.0000000000e+00
 46         0.0000000000e+00
 47        -2.7720467354e-01
 48         0.0000000000e+00
 49         0.0000000000e+00
 50        -3.7503763846e-01
 51         0.0000000000e+00
 52         0.0000000000e+00
 53         0.0000000000e+00
 54         1.0680527789e-01
 55         0.0000000000e+00
 56        -3.6831858295e-01
 57        -4.2902886286e-01
 58         6.6435681702e-01
 59        -1.2462908423e-01
 60         0.0000000000e+00
 61         4.7982643855e-01
 62        -3.6020861514e-01
 63         0.0000000000e+00
 64        -4.6269245250e-01
 65         4.3287888424e-01
 66         0.0000000000e+00
 67        -2.3841617960e-01
 68         1.6789885983e-01
 69         8.6145910815e-02
 70         0.0000000000e+00
 71        -9.8942783027e-02
 72        -2.9533126589e-02
 73         0.0000000000e+00
 74         6.4573823819e-02
 75         0.0000000000e+00
 76        -4.2651274364e-01
 77        -2.7128104214e-01
 78         0.0000000000e+00
 79        -7.1816627014e-02
 80         0.0000000000e+00
 81        -1.8791244764e-01
 82        -2.6465143623e-01
 83         0.0000000000e+00
 84         0.0000000000e+00
 85         1.1703181046e-01
 86        -3.6831858295e-01
 87        -4.2902886286e-01
 88         6.6435681702e-01
 89        -1.2462908423e-01
 90         0.0000000000e+00
 91        -4.7982643855e-01
 92        -3.6020861514e-01
 93         0.0000000000e+00
 94         4.6269245250e-01
 95         4.3287888424e-01
 96         0.0000000000e+00
 97         2.3841617960e-01
 98         1.6789885983e-01
 99         8.6145910815e-02
100         0.0000000000e+00
101         9.8942783027e-02
102        -2.9533126589e-02
103         0.0000000000e+00
104         6.4573823819e-02
105         0.0000000000e+00
106         4.2651274364e-01
107        -2.7128104214e-01
108         0.0000000000e+00
109        -7.1816627014e-02
110         0.0000000000e+00
111         1.8791244764e-01
112        -2.6465143623e-01
113         0.0000000000e+00
114         0.0000000000e+00
115        -1.1703181046e-01
 Sym= B1
 Ene=         1.3372292793e+01
 Spin= Beta
 Occup=         0.0000000000e+00
  1         0.0000000000e+00
  2         0.0000000000e+00
  3         0.0000000000e+00
  4         0.0000000000e+00
  5         0.0000000000e+00
  6         1.7884460021e-01
  7         0.0000000000e+00
  8         0.0000000000e+00
  9        -3.6227367875e-02
 10         0.0000000000e+00
 11         0.0000000000e+00
 12        -1.8457806659e+00
 13         0.0000000000e+00
 14         0.0000000000e+00
 15        -4.5645716482e-03
 16         0.0000000000e+00
 17         0.0000000000e+00
 18         0.0000000000e+00
 19        -1.2131295407e+00
 20         0.0000000000e+00
 21         0.0000000000e+00
 22         0.0000000000e+00
 23         0.0000000000e+00
 24         1.5589724969e+00
 25         0.0000000000e+00
 26         0.0000000000e+00
 27         0.0000000000e+00
 28         0.0000000000e+00
 29         4.0711143175e-01
 30         0.0000000000e+00
 31         0.0000000000e+00
 32         0.0000000000e+00
 33         0.0000000000e+00
 34        -5.6370525368e-02
 35         0.0000000000e+00
 36         0.0000000000e+00
 37         0.0000000000e+00
 38         1.6889078773e-01
 39         0.0000000000e+00
 40         0.0000000000e+00
 41        -2.4070275956e-01
 42         0.0000000000e+00
 43         0.0000000000e+00
 44         0.0000000000e+00
 45         8.6871336471e-01
 46         0.0000000000e+00
 47         0.0000000000e+00
 48        -8.5773884880e-02
 49         0.0000000000e+00
 50         0.0000000000e+00
 51         0.0000000000e+00
 52        -8.0144870905e-01
 53         0.0000000000e+00
 54         0.0000000000e+00
 55         0.0000000000e+00
 56         0.0000000000e+00
 57         0.0000000000e+00
 58         0.0000000000e+00
 59         0.0000000000e+00
 60        -2.2082149529e-01
 61         0.0000000000e+00
 62         0.0000000000e+00
 63         1.1049900793e+00
 64         0.0000000000e+00
 65         0.0000000000e+00
 66         1.9139319190e-01
 67         0.0000000000e+00
 68         0.0000000000e+00
 69         0.0000000000e+00
 70         2.7055106874e-01
 71         0.0000000000e+00
 72         0.0000000000e+00
 73        -3.7242544754e-01
 74         0.0000000000e+00
 75         4.4786297319e-01
 76         0.0000000000e+00
 77         0.0000000000e+00
 78        -6.2517601044e-01
 79         0.0000000000e+00
 80         1.0320255476e-01
 81         0.0000000000e+00
 82         0.0000000000e+00
 83        -4.4455937110e-01
 84        -4.0676097013e-01
 85         0.0000000000e+00
 86         0.0000000000e+00
 87         0.0000000000e+00
 88         0.0000000000e+00
 89         0.0000000000e+00
 90        -2.2082149529e-01
 91         0.0000000000e+00
 92         0.0000000000e+00
 93         1.1049900793e+00
 94         0.0000000000e+00
 95         0.0000000000e+00
 96         1.9139319190e-01
 97         0.0000000000e+00
 98         0.0000000000e+00
 99         0.0000000000e+00
100         2.7055106874e-01
101         0.0000000000e+00
102         0.0000000000e+00
103         3.7242544754e-01
104         0.0000000000e+00
105         4.4786297319e-01
106         0.0000000000e+00
107         0.0000000000e+00
108         6.2517601044e-01
109         0.0000000000e+00
110         1.0320255476e-01
111         0.0000000000e+00
112         0.0000000000e+00
113         4.4455937110e-01
114        -4.0676097013e-01
115         0.0000000000e+00
 Sym= A2
 Ene=         1.3756456698e+01
 Spin= Beta
 Occup=         0.0000000000e+00
  1         0.0000000000e+00
  2         0.0000000000e+00
  3         0.0000000000e+00
  4         0.0000000000e+00
  5         0.0000000000e+00
  6         0.0000000000e+00
  7         0.0000000000e+00
  8         0.0000000000e+00
  9         0.0000000000e+00
 10         0.0000000000e+00
 11         0.0000000000e+00
 12         0.0000000000e+00
 13         0.0000000000e+00
 14         0.0000000000e+00
 15         0.0000000000e+00
 16         0.0000000000e+00
 17         0.0000000000e+00
 18         0.0000000000e+00
 19         0.0000000000e+00
 20         0.0000000000e+00
 21         0.0000000000e+00
 22         1.3435148698e+00
 23         0.0000000000e+00
 24         0.0000000000e+00
 25         0.0000000000e+00
 26         0.0000000000e+00
 27        -1.8850031356e+00
 28         0.0000000000e+00
 29         0.0000000000e+00
 30         0.0000000000e+00
 31         0.0000000000e+00
 32        -6.6461231705e-01
 33         0.0000000000e+00
 34         0.0000000000e+00
 35         0.0000000000e+00
 36         0.0000000000e+00
 37         1.8432888430e-01
 38         0.0000000000e+00
 39         0.0000000000e+00
 40         0.0000000000e+00
 41         0.0000000000e+00
 42         0.0000000000e+00
 43         0.0000000000e+00
 44         1.0143463850e+00
 45         0.0000000000e+00
 46         0.0000000000e+00
 47         0.0000000000e+00
 48         0.0000000000e+00
 49         0.0000000000e+00
 50         0.0000000000e+00
 51        -3.9956875001e-01
 52         0.0000000000e+00
 53         0.0000000000e+00
 54         0.0000000000e+00
 55         4.9882409162e-01
 56         0.0000000000e+00
 57         0.0000000000e+00
 58         0.0000000000e+00
 59         0.0000000000e+00
 60        -2.1302970235e-01
 61         0.0000000000e+00
 62         0.0000000000e+00
 63         1.0825932159e+00
 64         0.0000000000e+00
 65         0.0000000000e+00
 66         2.0763962761e-01
 67         0.0000000000e+00
 68         0.0000000000e+00
 69         0.0000000000e+00
 70         2.4773122721e-01
 71         0.0000000000e+00
 72         0.0000000000e+00
 73        -3.6594863785e-01
 74         0.0000000000e+00
 75         4.4983663098e-01
 76         0.0000000000e+00
 77         0.0000000000e+00
 78        -6.2179180104e-01
 79         0.0000000000e+00
 80         9.7879468749e-02
 81         0.0000000000e+00
 82         0.0000000000e+00
 83        -4.6910617483e-01
 84        -3.8631212796e-01
 85         0.0000000000e+00
 86         0.0000000000e+00
 87         0.0000000000e+00
 88         0.0000000000e+00
 89         0.0000000000e+00
 90         2.1302970235e-01
 91         0.0000000000e+00
 92         0.0000000000e+00
 93        -1.0825932159e+00
 94         0.0000000000e+00
 95         0.0000000000e+00
 96        -2.0763962761e-01
 97         0.0000000000e+00
 98         0.0000000000e+00
 99         0.0000000000e+00
100        -2.4773122721e-01
101         0.0000000000e+00
102         0.0000000000e+00
103        -3.6594863785e-01
104         0.0000000000e+00
105        -4.4983663098e-01
106         0.0000000000e+00
107         0.0000000000e+00
108        -6.2179180104e-01
109         0.0000000000e+00
110        -9.7879468749e-02
111         0.0000000000e+00
112         0.0000000000e+00
113        -4.6910617483e-01
114         3.8631212796e-01
115         0.0000000000e+00
 Sym= A1
 Ene=         1.3778218968e+01
 Spin= Beta
 Occup=         0.0000000000e+00
  1         7.5918516151e-02
  2         8.6858276051e-02
  3         5.7772752405e-01
  4        -1.9783792722e+00
  5        -6.4132123087e-01
  6         0.0000000000e+00
  7         0.0000000000e+00
  8        -3.2265486896e-01
  9         0.0000000000e+00
 10         0.0000000000e+00
 11         3.3544252601e-01
 12         0.0000000000e+00
 13         0.0000000000e+00
 14         2.2431477993e+00
 15         0.0000000000e+00
 16         0.0000000000e+00
 17         1.6956726514e-01
 18         1.2351878158e+00
 19         0.0000000000e+00
 20         0.0000000000e+00
 21         4.2032528417e-01
 22         0.0000000000e+00
 23        -1.7497287710e+00
 24         0.0000000000e+00
 25         0.0000000000e+00
 26        -4.2931094864e-01
 27         0.0000000000e+00
 28        -6.9584123098e-01
 29         0.0000000000e+00
 30         0.0000000000e+00
 31        -1.8379012178e-01
 32         0.0000000000e+00
 33        -5.8481564036e-02
 34         0.0000000000e+00
 35         0.0000000000e+00
 36        -2.2167834651e-01
 37         0.0000000000e+00
 38         0.0000000000e+00
 39         0.0000000000e+00
 40         4.0036834877e-01
 41         0.0000000000e+00
 42         0.0000000000e+00
 43        -1.4895383666e-01
 44         0.0000000000e+00
 45         0.0000000000e+00
 46         0.0000000000e+00
 47         2.4279820355e-01
 48         0.0000000000e+00
 49         0.0000000000e+00
 50         5.6082348554e-01
 51         0.0000000000e+00
 52         0.0000000000e+00
 53         0.0000000000e+00
 54         1.9334576272e-01
 55         0.0000000000e+00
 56        -2.4402812959e-01
 57         8.1442764397e-01
 58         5.8207021096e-01
 59        -2.2688630477e-02
 60         0.0000000000e+00
 61         1.7705722550e-01
 62         1.9394285836e-01
 63         0.0000000000e+00
 64        -1.2094783406e+00
 65        -4.5126255940e-01
 66         0.0000000000e+00
 67        -3.0119231402e-01
 68        -3.6464814249e-02
 69        -3.0493491225e-01
 70         0.0000000000e+00
 71        -4.3538510678e-02
 72        -3.1964191572e-01
 73         0.0000000000e+00
 74        -5.9016940484e-01
 75         0.0000000000e+00
 76         8.7123954028e-02
 77        -4.7473628807e-01
 78         0.0000000000e+00
 79        -2.2940429219e-01
 80         0.0000000000e+00
 81         4.5615042568e-01
 82        -8.9489476225e-02
 83         0.0000000000e+00
 84         0.0000000000e+00
 85         2.8387445111e-01
 86        -2.4402812959e-01
 87         8.1442764397e-01
 88         5.8207021096e-01
 89        -2.2688630477e-02
 90         0.0000000000e+00
 91        -1.7705722550e-01
 92         1.9394285836e-01
 93         0.0000000000e+00
 94         1.2094783406e+00
 95        -4.5126255940e-01
 96         0.0000000000e+00
 97         3.0119231402e-01
 98        -3.6464814249e-02
 99        -3.0493491225e-01
100         0.0000000000e+00
101         4.3538510678e-02
102        -3.1964191572e-01
103         0.0000000000e+00
104        -5.9016940484e-01
105         0.0000000000e+00
106        -8.7123954028e-02
107        -4.7473628807e-01
108         0.0000000000e+00
109        -2.2940429219e-01
110         0.0000000000e+00
111        -4.5615042568e-01
112        -8.9489476225e-02
113         0.0000000000e+00
114         0.0000000000e+00
115        -2.8387445111e-01
 Sym= B2
 Ene=         1.3840772514e+01
 Spin= Beta
 Occup=         0.0000000000e+00
  1         0.0000000000e+00
  2         0.0000000000e+00
  3         0.0000000000e+00
  4         0.0000000000e+00
  5         0.0000000000e+00
  6         0.0000000000e+00
  7         1.0275444348e+00
  8         0.0000000000e+00
  9         0.0000000000e+00
 10        -2.5980173146e+00
 11         0.0000000000e+00
 12         0.0000000000e+00
 13         1.6003382419e+00
 14         0.0000000000e+00
 15         0.0000000000e+00
 16         3.4631522361e-01
 17         0.0000000000e+00
 18         0.0000000000e+00
 19         0.0000000000e+00
 20         8.0283025487e-01
 21         0.0000000000e+00
 22         0.0000000000e+00
 23         0.0000000000e+00
 24         0.0000000000e+00
 25        -5.8478666609e-02
 26         0.0000000000e+00
 27         0.0000000000e+00
 28         0.0000000000e+00
 29         0.0000000000e+00
 30        -1.2753989454e+00
 31         0.0000000000e+00
 32         0.0000000000e+00
 33         0.0000000000e+00
 34         0.0000000000e+00
 35        -3.9641336403e-01
 36         0.0000000000e+00
 37         0.0000000000e+00
 38         0.0000000000e+00
 39         4.3044607381e-01
 40         0.0000000000e+00
 41         0.0000000000e+00
 42         7.3595298505e-01
 43         0.0000000000e+00
 44         0.0000000000e+00
 45         0.0000000000e+00
 46        -3.8313140789e-01
 47         0.0000000000e+00
 48         0.0000000000e+00
 49        -9.7565668465e-02
 50         0.0000000000e+00
 51         0.0000000000e+00
 52         0.0000000000e+00
 53         2.0691106957e-01
 54         0.0000000000e+00
 55         0.0000000000e+00
 56        -2.9704323869e-01
 57        -7.8440057916e-01
 58         1.3910983869e-01
 59        -9.3852409825e-02
 60         0.0000000000e+00
 61         4.1954895664e-01
 62        -3.1406923626e-01
 63         0.0000000000e+00
 64        -3.1402642079e-01
 65         5.4297874728e-01
 66         0.0000000000e+00
 67        -1.4524124259e-01
 68         7.6418597703e-02
 69         7.6836781435e-02
 70         0.0000000000e+00
 71        -2.4005381994e-01
 72        -3.9656390002e-02
 73         0.0000000000e+00
 74         1.3024055496e-01
 75         0.0000000000e+00
 76        -5.1867620377e-01
 77        -3.5137890917e-01
 78         0.0000000000e+00
 79        -1.8948539722e-01
 80         0.0000000000e+00
 81        -2.8098316044e-01
 82        -3.8734509813e-01
 83         0.0000000000e+00
 84         0.0000000000e+00
 85         2.1276136217e-01
 86         2.9704323869e-01
 87         7.8440057916e-01
 88        -1.3910983869e-01
 89         9.3852409825e-02
 90         0.0000000000e+00
 91         4.1954895664e-01
 92         3.1406923626e-01
 93         0.0000000000e+00
 94        -3.1402642079e-01
 95        -5.4297874728e-01
 96         0.0000000000e+00
 97        -1.4524124259e-01
 98        -7.6418597703e-02
 99        -7.6836781435e-02
100         0.0000000000e+00
101        -2.4005381994e-01
102         3.9656390002e-02
103         0.0000000000e+00
104        -1.3024055496e-01
105         0.0000000000e+00
106        -5.1867620377e-01
107         3.5137890917e-01
108         0.0000000000e+00
109         1.8948539722e-01
110         0.0000000000e+00
111        -2.8098316044e-01
112         3.8734509813e-01
113         0.0000000000e+00
114         0.0000000000e+00
115         2.1276136217e-01
 Sym= A1
 Ene=         1.5659449989e+01
 Spin= Beta
 Occup=         0.0000000000e+00
  1         1.8819842985e-01
  2         3.4821208675e-01
  3         3.5036156481e+00
  4        -1.0513465850e+01
  5        -4.9273030770e+00
  6         0.0000000000e+00
  7         0.0000000000e+00
  8        -5.5996699688e-01
  9         0.0000000000e+00
 10         0.0000000000e+00
 11         7.1127181082e-01
 12         0.0000000000e+00
 13         0.0000000000e+00
 14         4.9726026297e+00
 15         0.0000000000e+00
 16         0.0000000000e+00
 17         9.6211294702e-01
 18        -1.2162154151e-01
 19         0.0000000000e+00
 20         0.0000000000e+00
 21        -1.1536518032e+00
 22         0.0000000000e+00
 23         2.0857126958e-01
 24         0.0000000000e+00
 25         0.0000000000e+00
 26         2.5969950442e+00
 27         0.0000000000e+00
 28         1.2948134343e-01
 29         0.0000000000e+00
 30         0.0000000000e+00
 31         1.6470691259e+00
 32         0.0000000000e+00
 33        -2.6732719867e-01
 34         0.0000000000e+00
 35         0.0000000000e+00
 36        -5.3425552752e-01
 37         0.0000000000e+00
 38         0.0000000000e+00
 39         0.0000000000e+00
 40        -8.2593930943e-01
 41         0.0000000000e+00
 42         0.0000000000e+00
 43        -1.4083512624e+00
 44         0.0000000000e+00
 45         0.0000000000e+00
 46         0.0000000000e+00
 47         3.5241940490e-01
 48         0.0000000000e+00
 49         0.0000000000e+00
 50         4.0819723977e-01
 51         0.0000000000e+00
 52         0.0000000000e+00
 53         0.0000000000e+00
 54        -3.3084297951e-01
 55         0.0000000000e+00
 56        -9.1533900599e-01
 57         4.3304246578e+00
 58         3.7078882628e+00
 59        -2.1235469397e-02
 60         0.0000000000e+00
 61        -9.4177702492e-02
 62        -3.6443602192e-03
 63         0.0000000000e+00
 64        -2.7634288712e+00
 65         2.2528753424e+00
 66         0.0000000000e+00
 67        -1.2115068462e+00
 68         8.8271900948e-01
 69         4.7470060120e-02
 70         0.0000000000e+00
 71        -7.6040456618e-01
 72        -4.7437441838e-01
 73         0.0000000000e+00
 74         1.0558026671e-01
 75         0.0000000000e+00
 76        -9.3781853018e-01
 77        -5.5442044842e-01
 78         0.0000000000e+00
 79        -1.3944658456e-01
 80         0.0000000000e+00
 81        -2.3562392876e-01
 82        -2.9580768743e-01
 83         0.0000000000e+00
 84         0.0000000000e+00
 85         1.2905079289e-01
 86        -9.1533900599e-01
 87         4.3304246578e+00
 88         3.7078882628e+00
 89        -2.1235469397e-02
 90         0.0000000000e+00
 91         9.4177702492e-02
 92        -3.6443602192e-03
 93         0.0000000000e+00
 94         2.7634288712e+00
 95         2.2528753424e+00
 96         0.0000000000e+00
 97         1.2115068462e+00
 98         8.8271900948e-01
 99         4.7470060120e-02
100         0.0000000000e+00
101         7.6040456618e-01
102        -4.7437441838e-01
103         0.0000000000e+00
104         1.0558026671e-01
105         0.0000000000e+00
106         9.3781853018e-01
107        -5.5442044842e-01
108         0.0000000000e+00
109        -1.3944658456e-01
110         0.0000000000e+00
111         2.3562392876e-01
112        -2.9580768743e-01
113         0.0000000000e+00
114         0.0000000000e+00
115        -1.2905079289e-01
 Sym= B2
 Ene=         1.5913643218e+01
 Spin= Beta
 Occup=         0.0000000000e+00
  1         0.0000000000e+00
  2         0.0000000000e+00
  3         0.0000000000e+00
  4         0.0000000000e+00
  5         0.0000000000e+00
  6         0.0000000000e+00
  7         6.9095996202e-01
  8         0.0000000000e+00
  9         0.0000000000e+00
 10        -8.7178084805e-01
 11         0.0000000000e+00
 12         0.0000000000e+00
 13        -6.2888562981e+00
 14         0.0000000000e+00
 15         0.0000000000e+00
 16        -1.1447062590e+00
 17         0.0000000000e+00
 18         0.0000000000e+00
 19         0.0000000000e+00
 20        -1.3511172230e+00
 21         0.0000000000e+00
 22         0.0000000000e+00
 23         0.0000000000e+00
 24         0.0000000000e+00
 25         3.1625127671e+00
 26         0.0000000000e+00
 27         0.0000000000e+00
 28         0.0000000000e+00
 29         0.0000000000e+00
 30         2.0311482784e+00
 31         0.0000000000e+00
 32         0.0000000000e+00
 33         0.0000000000e+00
 34         0.0000000000e+00
 35        -2.3521139889e-01
 36         0.0000000000e+00
 37         0.0000000000e+00
 38         0.0000000000e+00
 39         2.7304808637e-01
 40         0.0000000000e+00
 41         0.0000000000e+00
 42        -7.4244065215e-01
 43         0.0000000000e+00
 44         0.0000000000e+00
 45         0.0000000000e+00
 46         6.3033229455e-01
 47         0.0000000000e+00
 48         0.0000000000e+00
 49        -9.7713972028e-02
 50         0.0000000000e+00
 51         0.0000000000e+00
 52         0.0000000000e+00
 53        -5.2259461111e-01
 54         0.0000000000e+00
 55         0.0000000000e+00
 56        -8.7876464947e-01
 57         3.9327837001e+00
 58         3.1240989068e+00
 59         9.2941966252e-03
 60         0.0000000000e+00
 61        -3.6306553763e-02
 62         5.7898306023e-02
 63         0.0000000000e+00
 64        -2.6330449418e+00
 65         1.6801688185e+00
 66         0.0000000000e+00
 67        -1.0654412194e+00
 68         7.7171009163e-01
 69        -3.6455642334e-02
 70         0.0000000000e+00
 71        -6.5552758090e-01
 72        -5.1528994096e-01
 73         0.0000000000e+00
 74        -6.9960247089e-02
 75         0.0000000000e+00
 76        -7.3057017273e-01
 77        -5.5473830124e-01
 78         0.0000000000e+00
 79        -1.6235044592e-01
 80         0.0000000000e+00
 81        -5.6836022729e-02
 82        -2.9077910534e-01
 83         0.0000000000e+00
 84         0.0000000000e+00
 85         1.8303009127e-01
 86         8.7876464947e-01
 87        -3.9327837001e+00
 88        -3.1240989068e+00
 89        -9.2941966252e-03
 90         0.0000000000e+00
 91        -3.6306553763e-02
 92        -5.7898306023e-02
 93         0.0000000000e+00
 94        -2.6330449418e+00
 95        -1.6801688185e+00
 96         0.0000000000e+00
 97        -1.0654412194e+00
 98        -7.7171009163e-01
 99         3.6455642334e-02
100         0.0000000000e+00
101        -6.5552758090e-01
102         5.1528994096e-01
103         0.0000000000e+00
104         6.9960247089e-02
105         0.0000000000e+00
106        -7.3057017273e-01
107         5.5473830124e-01
108         0.0000000000e+00
109         1.6235044592e-01
110         0.0000000000e+00
111        -5.6836022729e-02
112         2.9077910534e-01
113         0.0000000000e+00
114         0.0000000000e+00
115         1.8303009127e-01
 Sym= A1
 Ene=         4.3257977185e+01
 Spin= Beta
 Occup=         0.0000000000e+00
  1         1.1709864025e+01
  2         1.2674935114e+01
  3         3.7105423195e+00
  4        -4.3120130022e+00
  5        -2.2387148947e+00
  6         0.0000000000e+00
  7         0.0000000000e+00
  8         8.9093370572e-02
  9         0.0000000000e+00
 10         0.0000000000e+00
 11        -5.4669190642e-01
 12         0.0000000000e+00
 13         0.0000000000e+00
 14         2.1637996232e+00
 15         0.0000000000e+00
 16         0.0000000000e+00
 17         5.1752507405e-01
 18         1.6700835325e-02
 19         0.0000000000e+00
 20         0.0000000000e+00
 21        -1.5072979622e-01
 22         0.0000000000e+00
 23        -5.0708786665e-02
 24         0.0000000000e+00
 25         0.0000000000e+00
 26         2.9301165357e-01
 27         0.0000000000e+00
 28         2.9485404549e-02
 29         0.0000000000e+00
 30         0.0000000000e+00
 31         1.0018469512e+00
 32         0.0000000000e+00
 33         5.8582505307e-02
 34         0.0000000000e+00
 35         0.0000000000e+00
 36         1.0355929717e-01
 37         0.0000000000e+00
 38         0.0000000000e+00
 39         0.0000000000e+00
 40        -3.4890479948e-01
 41         0.0000000000e+00
 42         0.0000000000e+00
 43        -6.7330915521e-01
 44         0.0000000000e+00
 45         0.0000000000e+00
 46         0.0000000000e+00
 47         9.2775221824e-02
 48         0.0000000000e+00
 49         0.0000000000e+00
 50         1.2023365924e-01
 51         0.0000000000e+00
 52         0.0000000000e+00
 53         0.0000000000e+00
 54        -6.2897492673e-02
 55         0.0000000000e+00
 56        -1.2057017086e-01
 57         1.4168515169e+00
 58         1.5689934055e+00
 59        -2.4624819265e-02
 60         0.0000000000e+00
 61        -9.4473943605e-02
 62         7.3521617204e-02
 63         0.0000000000e+00
 64        -7.0597849748e-01
 65         5.1962248791e-01
 66         0.0000000000e+00
 67        -4.6247515371e-01
 68         3.5372880716e-01
 69        -1.5932188960e-02
 70         0.0000000000e+00
 71        -8.3794635854e-02
 72        -5.4102655213e-02
 73         0.0000000000e+00
 74         7.3201046970e-03
 75         0.0000000000e+00
 76        -8.0731372954e-02
 77        -7.4690048506e-02
 78         0.0000000000e+00
 79         3.2037813822e-02
 80         0.0000000000e+00
 81         7.2196562819e-02
 82         1.2185332523e-01
 83         0.0000000000e+00
 84         0.0000000000e+00
 85        -5.9880796597e-02
 86        -1.2057017086e-01
 87         1.4168515169e+00
 88         1.5689934055e+00
 89        -2.4624819265e-02
 90         0.0000000000e+00
 91         9.4473943605e-02
 92         7.3521617204e-02
 93         0.0000000000e+00
 94         7.0597849748e-01
 95         5.1962248791e-01
 96         0.0000000000e+00
 97         4.6247515371e-01
 98         3.5372880716e-01
 99        -1.5932188960e-02
100         0.0000000000e+00
101         8.3794635854e-02
102        -5.4102655213e-02
103         0.0000000000e+00
104         7.3201046970e-03
105         0.0000000000e+00
106         8.0731372954e-02
107        -7.4690048506e-02
108         0.0000000000e+00
109         3.2037813822e-02
110         0.0000000000e+00
111        -7.2196562819e-02
112         1.2185332523e-01
113         0.0000000000e+00
114         0.0000000000e+00
115         5.9880796597e-02
