[Molden Format]
[Atoms] (AU)
O    1    8           0.0000000000         0.0000000000        -0.1250603194
H    2    1           0.0000000000        -1.4236735215         0.9926773327
H    3    1          -0.0000000000         1.4236735215         0.9926773327
[GTO]
  1 0
 s    9  1.00
    61420.0000000000         0.0000900000
     9199.0000000000         0.0006980000
     2091.0000000000         0.0036640000
      590.9000000000         0.0152180000
      192.3000000000         0.0524230000
       69.3200000000         0.1459210000
       26.9700000000         0.3052580000
       11.1000000000         0.3985080000
        4.6820000000         0.2169800000
 s    9  1.00
    61420.0000000000        -0.0000200000
     9199.0000000000        -0.0001590000
     2091.0000000000        -0.0008290000
      590.9000000000        -0.0035080000
      192.3000000000        -0.0121560000
       69.3200000000        -0.0362610000
       26.9700000000        -0.0829920000
       11.1000000000        -0.1520900000
        4.6820000000        -0.1153310000
 s    1  1.00
        1.4280000000         1.0000000000
 s    1  1.00
        0.5547000000         1.0000000000
 s    1  1.00
        0.2067000000         1.0000000000
 p    3  1.00
       63.4200000000         0.0060440000
       14.6600000000         0.0417990000
        4.4590000000         0.1611430000
 p    1  1.00
        1.5310000000         1.0000000000
 p    1  1.00
        0.5302000000         1.0000000000
 p    1  1.00
        0.1750000000         1.0000000000
 d    1  1.00
        3.7750000000         1.0000000000
 d    1  1.00
        1.3000000000         1.0000000000
 d    1  1.00
        0.4440000000         1.0000000000
 f    1  1.00
        2.6660000000         1.0000000000
 f    1  1.00
        0.8590000000         1.0000000000
 g    1  1.00
        1.8460000000         1.0000000000

  2 0
 s    3  1.00
       82.6400000000         0.0020060000
       12.4100000000         0.0153430000
        2.8240000000         0.0755790000
 s    1  1.00
        0.7977000000         1.0000000000
 s    1  1.00
        0.2581000000         1.0000000000
 s    1  1.00
        0.0898900000         1.0000000000
 p    1  1.00
        2.2920000000         1.0000000000
 p    1  1.00
        0.8380000000         1.0000000000
 p    1  1.00
        0.2920000000         1.0000000000
 d    1  1.00
        2.0620000000         1.0000000000
 d    1  1.00
        0.6620000000         1.0000000000
 f    1  1.00
        1.3970000000         1.0000000000

  3 0
 s    3  1.00
       82.6400000000         0.0020060000
       12.4100000000         0.0153430000
        2.8240000000         0.0755790000
 s    1  1.00
        0.7977000000         1.0000000000
 s    1  1.00
        0.2581000000         1.0000000000
 s    1  1.00
        0.0898900000         1.0000000000
 p    1  1.00
        2.2920000000         1.0000000000
 p    1  1.00
        0.8380000000         1.0000000000
 p    1  1.00
        0.2920000000         1.0000000000
 d    1  1.00
        2.0620000000         1.0000000000
 d    1  1.00
        0.6620000000         1.0000000000
 f    1  1.00
        1.3970000000         1.0000000000

[5D]
[9G]

[MO]
 Sym= A1
 Ene=        -2.0560257987e+01
 Spin= Alpha
 Occup=         2.0000000000e+00
  1         9.9231366377e-01
  2         8.6004400118e-04
  3         1.9055095417e-02
  4        -4.9421756764e-03
  5         4.0960789741e-04
  6         0.0000000000e+00
  7         0.0000000000e+00
  8         1.6333048135e-03
  9         0.0000000000e+00
 10         0.0000000000e+00
 11        -3.1370708600e-04
 12         0.0000000000e+00
 13         0.0000000000e+00
 14        -9.6420382478e-04
 15         0.0000000000e+00
 16         0.0000000000e+00
 17        -5.2057620444e-05
 18         3.0017993691e-05
 19         0.0000000000e+00
 20         0.0000000000e+00
 21        -1.1923129723e-04
 22         0.0000000000e+00
 23        -8.6549506167e-05
 24         0.0000000000e+00
 25         0.0000000000e+00
 26         3.6376810969e-04
 27         0.0000000000e+00
 28         1.1308750194e-04
 29         0.0000000000e+00
 30         0.0000000000e+00
 31         4.9145305954e-04
 32         0.0000000000e+00
 33        -4.6971042296e-05
 34         0.0000000000e+00
 35         0.0000000000e+00
 36        -7.5649830211e-05
 37         0.0000000000e+00
 38         0.0000000000e+00
 39         0.0000000000e+00
 40         1.5970994611e-04
 41         0.0000000000e+00
 42         0.0000000000e+00
 43         2.8150432197e-04
 44         0.0000000000e+00
 45         0.0000000000e+00
 46         0.0000000000e+00
 47         1.5919199796e-05
 48         0.0000000000e+00
 49         0.0000000000e+00
 50         2.0561797325e-05
 51         0.0000000000e+00
 52         0.0000000000e+00
 53         0.0000000000e+00
 54        -1.2097208692e-05
 55         0.0000000000e+00
 56        -2.5300049031e-05
 57         1.0328951118e-03
 58         7.2380444745e-04
 59        -1.4189380781e-04
 60         0.0000000000e+00
 61        -3.4124213463e-06
 62         1.0302696078e-05
 63         0.0000000000e+00
 64         5.3284822205e-04
 65        -4.9261206490e-04
 66         0.0000000000e+00
 67         1.7275954506e-04
 68        -2.3853701516e-04
 69        -6.5606579257e-06
 70         0.0000000000e+00
 71        -4.3938885395e-05
 72        -2.6167586883e-05
 73         0.0000000000e+00
 74         5.6155542534e-05
 75         0.0000000000e+00
 76        -1.5012541846e-04
 77        -7.4448179929e-05
 78         0.0000000000e+00
 79         1.7140449203e-05
 80         0.0000000000e+00
 81        -1.3884776259e-05
 82        -3.0690245006e-06
 83         0.0000000000e+00
 84         0.0000000000e+00
 85        -6.9226440068e-06
 86        -2.5300049031e-05
 87         1.0328951118e-03
 88         7.2380444745e-04
 89        -1.4189380781e-04
 90         0.0000000000e+00
 91         3.4124213463e-06
 92         1.0302696078e-05
 93         0.0000000000e+00
 94        -5.3284822205e-04
 95        -4.9261206490e-04
 96         0.0000000000e+00
 97        -1.7275954506e-04
 98        -2.3853701516e-04
 99        -6.5606579257e-06
100         0.0000000000e+00
101         4.3938885395e-05
102        -2.6167586883e-05
103         0.0000000000e+00
104         5.6155542534e-05
105         0.0000000000e+00
106         1.5012541846e-04
107        -7.4448179929e-05
108         0.0000000000e+00
109         1.7140449203e-05
110         0.0000000000e+00
111         1.3884776259e-05
112        -3.0690245006e-06
113         0.0000000000e+00
114         0.0000000000e+00
115         6.9226440068e-06
 Sym= A1
 Ene=        -1.3497816468e+00
 Spin= Alpha
 Occup=         2.0000000000e+00
  1         3.7176003193e-03
  2        -3.1436585702e-01
  3        -2.4672096857e-01
  4        -4.9404642924e-01
  5        -2.1184736313e-01
  6         0.0000000000e+00
  7         0.0000000000e+00
  8        -2.1807444342e-02
  9         0.0000000000e+00
 10         0.0000000000e+00
 11        -4.3564884135e-02
 12         0.0000000000e+00
 13         0.0000000000e+00
 14        -5.3298624458e-02
 15         0.0000000000e+00
 16         0.0000000000e+00
 17        -8.3419691494e-03
 18        -3.3284580376e-04
 19         0.0000000000e+00
 20         0.0000000000e+00
 21         9.0071035044e-04
 22         0.0000000000e+00
 23        -1.7285078753e-03
 24         0.0000000000e+00
 25         0.0000000000e+00
 26         6.1320872772e-03
 27         0.0000000000e+00
 28        -2.7278336784e-03
 29         0.0000000000e+00
 30         0.0000000000e+00
 31         3.9980428509e-03
 32         0.0000000000e+00
 33         5.0155336886e-04
 34         0.0000000000e+00
 35         0.0000000000e+00
 36         1.2014361254e-03
 37         0.0000000000e+00
 38         0.0000000000e+00
 39         0.0000000000e+00
 40         4.8403136471e-04
 41         0.0000000000e+00
 42         0.0000000000e+00
 43         2.3135732035e-03
 44         0.0000000000e+00
 45         0.0000000000e+00
 46         0.0000000000e+00
 47         1.4857505699e-04
 48         0.0000000000e+00
 49         0.0000000000e+00
 50         2.9818106286e-04
 51         0.0000000000e+00
 52         0.0000000000e+00
 53         0.0000000000e+00
 54        -1.0175085561e-04
 55         0.0000000000e+00
 56        -3.4244247557e-02
 57        -8.2749319661e-02
 58        -4.8491455711e-02
 59        -2.4409981398e-03
 60         0.0000000000e+00
 61        -5.5153924536e-03
 62         3.7789951488e-03
 63         0.0000000000e+00
 64        -9.7462291914e-03
 65         7.0322141550e-03
 66         0.0000000000e+00
 67        -5.5264918863e-03
 68         2.8348601173e-03
 69        -1.8092303644e-05
 70         0.0000000000e+00
 71         1.9680057986e-03
 72         1.4541162129e-03
 73         0.0000000000e+00
 74        -6.5147260872e-05
 75         0.0000000000e+00
 76         1.1675212435e-03
 77         8.5383961373e-04
 78         0.0000000000e+00
 79        -2.3880025180e-04
 80         0.0000000000e+00
 81        -2.1662240989e-04
 82        -4.5821453454e-04
 83         0.0000000000e+00
 84         0.0000000000e+00
 85         3.6022787557e-04
 86        -3.4244247557e-02
 87        -8.2749319661e-02
 88        -4.8491455711e-02
 89        -2.4409981398e-03
 90         0.0000000000e+00
 91         5.5153924536e-03
 92         3.7789951488e-03
 93         0.0000000000e+00
 94         9.7462291914e-03
 95         7.0322141550e-03
 96         0.0000000000e+00
 97         5.5264918863e-03
 98         2.8348601173e-03
 99        -1.8092303644e-05
100         0.0000000000e+00
101        -1.9680057986e-03
102         1.4541162129e-03
103         0.0000000000e+00
104        -6.5147260872e-05
105         0.0000000000e+00
106        -1.1675212435e-03
107         8.5383961373e-04
108         0.0000000000e+00
109        -2.3880025180e-04
110         0.0000000000e+00
111         2.1662240989e-04
112        -4.5821453454e-04
113         0.0000000000e+00
114         0.0000000000e+00
115        -3.6022787557e-04
 Sym= B2
 Ene=        -7.1252581411e-01
 Spin= Alpha
 Occup=         2.0000000000e+00
  1         0.0000000000e+00
  2         0.0000000000e+00
  3         0.0000000000e+00
  4         0.0000000000e+00
  5         0.0000000000e+00
  6         0.0000000000e+00
  7         1.4103445118e-01
  8         0.0000000000e+00
  9         0.0000000000e+00
 10         2.6029504574e-01
 11         0.0000000000e+00
 12         0.0000000000e+00
 13         3.0398261493e-01
 14         0.0000000000e+00
 15         0.0000000000e+00
 16         1.1168309147e-01
 17         0.0000000000e+00
 18         0.0000000000e+00
 19         0.0000000000e+00
 20         5.0169772571e-03
 21         0.0000000000e+00
 22         0.0000000000e+00
 23         0.0000000000e+00
 24         0.0000000000e+00
 25         1.8393721089e-02
 26         0.0000000000e+00
 27         0.0000000000e+00
 28         0.0000000000e+00
 29         0.0000000000e+00
 30         1.9238994473e-02
 31         0.0000000000e+00
 32         0.0000000000e+00
 33         0.0000000000e+00
 34         0.0000000000e+00
 35         6.9825508429e-04
 36         0.0000000000e+00
 37         0.0000000000e+00
 38         0.0000000000e+00
 39        -1.5128448751e-03
 40         0.0000000000e+00
 41         0.0000000000e+00
 42         4.9792938201e-04
 43         0.0000000000e+00
 44         0.0000000000e+00
 45         0.0000000000e+00
 46        -3.2157691869e-03
 47         0.0000000000e+00
 48         0.0000000000e+00
 49        -2.7200399547e-04
 50         0.0000000000e+00
 51         0.0000000000e+00
 52         0.0000000000e+00
 53        -5.7033491872e-04
 54         0.0000000000e+00
 55         0.0000000000e+00
 56        -5.3602981220e-02
 57        -1.4120936662e-01
 58        -1.8323468526e-01
 59        -3.8084111643e-02
 60         0.0000000000e+00
 61        -4.2687314228e-03
 62         5.4643254755e-03
 63         0.0000000000e+00
 64        -9.2179997673e-03
 65         1.3507581543e-02
 66         0.0000000000e+00
 67        -1.3450291962e-02
 68         1.6802968541e-02
 69        -9.4467705800e-04
 70         0.0000000000e+00
 71         2.3818385799e-03
 72         7.3267553471e-04
 73         0.0000000000e+00
 74        -1.6440925684e-03
 75         0.0000000000e+00
 76         4.0404828850e-03
 77         2.2304359476e-03
 78         0.0000000000e+00
 79        -1.0932907233e-04
 80         0.0000000000e+00
 81        -7.9483285081e-04
 82        -6.2359524713e-04
 83         0.0000000000e+00
 84         0.0000000000e+00
 85         1.1477819787e-04
 86         5.3602981220e-02
 87         1.4120936662e-01
 88         1.8323468526e-01
 89         3.8084111643e-02
 90         0.0000000000e+00
 91        -4.2687314228e-03
 92        -5.4643254755e-03
 93         0.0000000000e+00
 94        -9.2179997673e-03
 95        -1.3507581543e-02
 96         0.0000000000e+00
 97        -1.3450291962e-02
 98        -1.6802968541e-02
 99         9.4467705800e-04
100         0.0000000000e+00
101         2.3818385799e-03
102        -7.3267553471e-04
103         0.0000000000e+00
104         1.6440925684e-03
105         0.0000000000e+00
106         4.0404828850e-03
107        -2.2304359476e-03
108         0.0000000000e+00
109         1.0932907233e-04
110         0.0000000000e+00
111        -7.9483285081e-04
112         6.2359524713e-04
113         0.0000000000e+00
114         0.0000000000e+00
115         1.1477819787e-04
 Sym= A1
 Ene=        -5.8339369586e-01
 Spin= Alpha
 Occup=         2.0000000000e+00
  1         2.6758623465e-03
  2         1.0989563532e-01
  3         9.4227692052e-02
  4         1.8357949025e-01
  5         1.9744222816e-01
  6         0.0000000000e+00
  7         0.0000000000e+00
  8        -1.5567199287e-01
  9         0.0000000000e+00
 10         0.0000000000e+00
 11        -2.8593205610e-01
 12         0.0000000000e+00
 13         0.0000000000e+00
 14        -3.5397385339e-01
 15         0.0000000000e+00
 16         0.0000000000e+00
 17        -2.1749798885e-01
 18        -2.2307079113e-03
 19         0.0000000000e+00
 20         0.0000000000e+00
 21         1.4957263461e-03
 22         0.0000000000e+00
 23        -8.1643267553e-03
 24         0.0000000000e+00
 25         0.0000000000e+00
 26         4.4569671223e-03
 27         0.0000000000e+00
 28        -1.6122822973e-02
 29         0.0000000000e+00
 30         0.0000000000e+00
 31         8.6330205854e-03
 32         0.0000000000e+00
 33         1.6670526597e-04
 34         0.0000000000e+00
 35         0.0000000000e+00
 36         1.5305065660e-03
 37         0.0000000000e+00
 38         0.0000000000e+00
 39         0.0000000000e+00
 40        -5.1349521912e-04
 41         0.0000000000e+00
 42         0.0000000000e+00
 43         3.4056195810e-03
 44         0.0000000000e+00
 45         0.0000000000e+00
 46         0.0000000000e+00
 47         1.9048760459e-04
 48         0.0000000000e+00
 49         0.0000000000e+00
 50         5.0300202719e-04
 51         0.0000000000e+00
 52         0.0000000000e+00
 53         0.0000000000e+00
 54        -1.1260730239e-04
 55         0.0000000000e+00
 56        -3.2568149005e-02
 57        -8.6107201047e-02
 58        -9.7271415542e-02
 59        -1.3087928962e-02
 60         0.0000000000e+00
 61        -4.6990716286e-03
 62        -3.2017224516e-04
 63         0.0000000000e+00
 64        -9.0220594650e-03
 65        -3.2665300250e-03
 66         0.0000000000e+00
 67        -8.0323077144e-03
 68        -1.8139884065e-02
 69         1.1951891803e-03
 70         0.0000000000e+00
 71         7.8051429278e-04
 72         1.4201912292e-03
 73         0.0000000000e+00
 74         2.6605889726e-03
 75         0.0000000000e+00
 76        -2.0813781090e-03
 77         2.0788611731e-03
 78         0.0000000000e+00
 79        -4.5234872336e-04
 80         0.0000000000e+00
 81         8.0764191716e-04
 82        -6.1294350818e-05
 83         0.0000000000e+00
 84         0.0000000000e+00
 85         4.8460881802e-04
 86        -3.2568149005e-02
 87        -8.6107201047e-02
 88        -9.7271415542e-02
 89        -1.3087928962e-02
 90         0.0000000000e+00
 91         4.6990716286e-03
 92        -3.2017224516e-04
 93         0.0000000000e+00
 94         9.0220594650e-03
 95        -3.2665300250e-03
 96         0.0000000000e+00
 97         8.0323077144e-03
 98        -1.8139884065e-02
 99         1.1951891803e-03
100         0.0000000000e+00
101        -7.8051429278e-04
102         1.4201912292e-03
103         0.0000000000e+00
104         2.6605889726e-03
105         0.0000000000e+00
106         2.0813781090e-03
107         2.0788611731e-03
108         0.0000000000e+00
109        -4.5234872336e-04
110         0.0000000000e+00
111        -8.0764191716e-04
112        -6.1294350818e-05
113         0.0000000000e+00
114         0.0000000000e+00
115        -4.8460881802e-04
 Sym= B1
 Ene=        -5.0833906071e-01
 Spin= Alpha
 Occup=         2.0000000000e+00
  1         0.0000000000e+00
  2         0.0000000000e+00
  3         0.0000000000e+00
  4         0.0000000000e+00
  5         0.0000000000e+00
  6         1.7772057967e-01
  7         0.0000000000e+00
  8         0.0000000000e+00
  9         3.2642304560e-01
 10         0.0000000000e+00
 11         0.0000000000e+00
 12         4.0709260537e-01
 13         0.0000000000e+00
 14         0.0000000000e+00
 15         2.8785085960e-01
 16         0.0000000000e+00
 17         0.0000000000e+00
 18         0.0000000000e+00
 19         2.1217481500e-03
 20         0.0000000000e+00
 21         0.0000000000e+00
 22         0.0000000000e+00
 23         0.0000000000e+00
 24         7.6605655844e-03
 25         0.0000000000e+00
 26         0.0000000000e+00
 27         0.0000000000e+00
 28         0.0000000000e+00
 29         1.5715173324e-02
 30         0.0000000000e+00
 31         0.0000000000e+00
 32         0.0000000000e+00
 33         0.0000000000e+00
 34         4.4167549149e-04
 35         0.0000000000e+00
 36         0.0000000000e+00
 37         0.0000000000e+00
 38        -1.1543239582e-03
 39         0.0000000000e+00
 40         0.0000000000e+00
 41         1.5748208338e-03
 42         0.0000000000e+00
 43         0.0000000000e+00
 44         0.0000000000e+00
 45        -3.7538285823e-03
 46         0.0000000000e+00
 47         0.0000000000e+00
 48         4.5358261993e-05
 49         0.0000000000e+00
 50         0.0000000000e+00
 51         0.0000000000e+00
 52        -3.7974938876e-04
 53         0.0000000000e+00
 54         0.0000000000e+00
 55         0.0000000000e+00
 56         0.0000000000e+00
 57         0.0000000000e+00
 58         0.0000000000e+00
 59         0.0000000000e+00
 60         4.5080097030e-03
 61         0.0000000000e+00
 62         0.0000000000e+00
 63         1.1974432891e-02
 64         0.0000000000e+00
 65         0.0000000000e+00
 66         2.8472934109e-02
 67         0.0000000000e+00
 68         0.0000000000e+00
 69         0.0000000000e+00
 70        -1.3170659755e-03
 71         0.0000000000e+00
 72         0.0000000000e+00
 73         1.6291420905e-03
 74         0.0000000000e+00
 75        -2.9566731232e-03
 76         0.0000000000e+00
 77         0.0000000000e+00
 78         4.3889630227e-03
 79         0.0000000000e+00
 80         3.5629285428e-04
 81         0.0000000000e+00
 82         0.0000000000e+00
 83        -1.0823459060e-03
 84        -9.0413502297e-04
 85         0.0000000000e+00
 86         0.0000000000e+00
 87         0.0000000000e+00
 88         0.0000000000e+00
 89         0.0000000000e+00
 90         4.5080097030e-03
 91         0.0000000000e+00
 92         0.0000000000e+00
 93         1.1974432891e-02
 94         0.0000000000e+00
 95         0.0000000000e+00
 96         2.8472934109e-02
 97         0.0000000000e+00
 98         0.0000000000e+00
 99         0.0000000000e+00
100        -1.3170659755e-03
101         0.0000000000e+00
102         0.0000000000e+00
103        -1.6291420905e-03
104         0.0000000000e+00
105        -2.9566731232e-03
106         0.0000000000e+00
107         0.0000000000e+00
108        -4.3889630227e-03
109         0.0000000000e+00
110         3.5629285428e-04
111         0.0000000000e+00
112         0.0000000000e+00
113         1.0823459060e-03
114        -9.0413502297e-04
115         0.0000000000e+00
 Sym= A1
 Ene=         1.1700592653e-01
 Spin= Alpha
 Occup=         0.0000000000e+00
  1         9.8383950938e-03
  2         9.8833559200e-02
  3         1.0805695005e-01
  4        -6.3037904247e-02
  5         1.8837889849e+00
  6         0.0000000000e+00
  7         0.0000000000e+00
  8         4.0506175612e-02
  9         0.0000000000e+00
 10         0.0000000000e+00
 11         4.3335797052e-02
 12         0.0000000000e+00
 13         0.0000000000e+00
 14         1.9911092208e-01
 15         0.0000000000e+00
 16         0.0000000000e+00
 17         4.4890698779e-01
 18         5.0905005595e-04
 19         0.0000000000e+00
 20         0.0000000000e+00
 21         2.5630597121e-04
 22         0.0000000000e+00
 23         7.7595006727e-04
 24         0.0000000000e+00
 25         0.0000000000e+00
 26         5.8435196167e-03
 27         0.0000000000e+00
 28        -8.7305970657e-03
 29         0.0000000000e+00
 30         0.0000000000e+00
 31        -8.6184584996e-02
 32         0.0000000000e+00
 33         2.3151765637e-03
 34         0.0000000000e+00
 35         0.0000000000e+00
 36         3.4628289149e-03
 37         0.0000000000e+00
 38         0.0000000000e+00
 39         0.0000000000e+00
 40        -1.5415588116e-02
 41         0.0000000000e+00
 42         0.0000000000e+00
 43        -2.3847646427e-02
 44         0.0000000000e+00
 45         0.0000000000e+00
 46         0.0000000000e+00
 47        -1.7760531451e-03
 48         0.0000000000e+00
 49         0.0000000000e+00
 50        -1.9931262867e-03
 51         0.0000000000e+00
 52         0.0000000000e+00
 53         0.0000000000e+00
 54         1.5070145075e-03
 55         0.0000000000e+00
 56        -5.3132186344e-05
 57        -9.2709418850e-02
 58        -3.0521150284e-01
 59        -9.7998159177e-01
 60         0.0000000000e+00
 61        -3.2849705808e-03
 62         1.8979248499e-03
 63         0.0000000000e+00
 64         1.7299410280e-02
 65         1.3521074451e-03
 66         0.0000000000e+00
 67        -1.5211575266e-01
 68         1.3311851326e-01
 69         3.0821632973e-05
 70         0.0000000000e+00
 71        -1.0127931843e-03
 72        -1.0046532838e-03
 73         0.0000000000e+00
 74        -9.1847174633e-03
 75         0.0000000000e+00
 76         3.8253729252e-03
 77        -3.8557995623e-03
 78         0.0000000000e+00
 79         1.5958476466e-03
 80         0.0000000000e+00
 81         1.8123257236e-03
 82         4.3977404188e-03
 83         0.0000000000e+00
 84         0.0000000000e+00
 85        -2.3142625118e-03
 86        -5.3132186344e-05
 87        -9.2709418850e-02
 88        -3.0521150284e-01
 89        -9.7998159177e-01
 90         0.0000000000e+00
 91         3.2849705808e-03
 92         1.8979248499e-03
 93         0.0000000000e+00
 94        -1.7299410280e-02
 95         1.3521074451e-03
 96         0.0000000000e+00
 97         1.5211575266e-01
 98         1.3311851326e-01
 99         3.0821632973e-05
100         0.0000000000e+00
101         1.0127931843e-03
102        -1.0046532838e-03
103         0.0000000000e+00
104        -9.1847174633e-03
105         0.0000000000e+00
106        -3.8253729252e-03
107        -3.8557995623e-03
108         0.0000000000e+00
109         1.5958476466e-03
110         0.0000000000e+00
111        -1.8123257236e-03
112         4.3977404188e-03
113         0.0000000000e+00
114         0.0000000000e+00
115         2.3142625118e-03
 Sym= B2
 Ene=         1.7121591594e-01
 Spin= Alpha
 Occup=         0.0000000000e+00
  1         0.0000000000e+00
  2         0.0000000000e+00
  3         0.0000000000e+00
  4         0.0000000000e+00
  5         0.0000000000e+00
  6         0.0000000000e+00
  7         5.7849103361e-02
  8         0.0000000000e+00
  9         0.0000000000e+00
 10         9.4371388449e-02
 11         0.0000000000e+00
 12         0.0000000000e+00
 13         1.9925340788e-01
 14         0.0000000000e+00
 15         0.0000000000e+00
 16         1.0489018107e+00
 17         0.0000000000e+00
 18         0.0000000000e+00
 19         0.0000000000e+00
 20         2.3667067576e-03
 21         0.0000000000e+00
 22         0.0000000000e+00
 23         0.0000000000e+00
 24         0.0000000000e+00
 25        -1.4516345582e-02
 26         0.0000000000e+00
 27         0.0000000000e+00
 28         0.0000000000e+00
 29         0.0000000000e+00
 30         1.1890352025e-01
 31         0.0000000000e+00
 32         0.0000000000e+00
 33         0.0000000000e+00
 34         0.0000000000e+00
 35        -1.7357255412e-03
 36         0.0000000000e+00
 37         0.0000000000e+00
 38         0.0000000000e+00
 39         6.4458276469e-04
 40         0.0000000000e+00
 41         0.0000000000e+00
 42         1.5568077951e-02
 43         0.0000000000e+00
 44         0.0000000000e+00
 45         0.0000000000e+00
 46        -1.9322911313e-03
 47         0.0000000000e+00
 48         0.0000000000e+00
 49         1.8223497535e-03
 50         0.0000000000e+00
 51         0.0000000000e+00
 52         0.0000000000e+00
 53        -9.5863839638e-04
 54         0.0000000000e+00
 55         0.0000000000e+00
 56        -4.2310386172e-03
 57         6.0102718473e-02
 58         3.0650247448e-01
 59         2.0908757667e+00
 60         0.0000000000e+00
 61         3.6074037923e-03
 62        -3.4059371942e-03
 63         0.0000000000e+00
 64        -2.0470797813e-02
 65         3.0426054321e-02
 66         0.0000000000e+00
 67         2.4419584939e-01
 68        -1.8653169255e-01
 69        -1.6945191139e-03
 70         0.0000000000e+00
 71         3.1828347496e-03
 72         2.3498764028e-03
 73         0.0000000000e+00
 74        -9.2021709663e-03
 75         0.0000000000e+00
 76        -8.7225871905e-03
 77        -1.7476109551e-02
 78         0.0000000000e+00
 79         7.9728045961e-04
 80         0.0000000000e+00
 81        -3.5861285722e-03
 82        -1.7935924232e-03
 83         0.0000000000e+00
 84         0.0000000000e+00
 85         3.4297059164e-04
 86         4.2310386172e-03
 87        -6.0102718473e-02
 88        -3.0650247448e-01
 89        -2.0908757667e+00
 90         0.0000000000e+00
 91         3.6074037923e-03
 92         3.4059371942e-03
 93         0.0000000000e+00
 94        -2.0470797813e-02
 95        -3.0426054321e-02
 96         0.0000000000e+00
 97         2.4419584939e-01
 98         1.8653169255e-01
 99         1.6945191139e-03
100         0.0000000000e+00
101         3.1828347496e-03
102        -2.3498764028e-03
103         0.0000000000e+00
104         9.2021709663e-03
105         0.0000000000e+00
106        -8.7225871905e-03
107         1.7476109551e-02
108         0.0000000000e+00
109        -7.9728045961e-04
110         0.0000000000e+00
111        -3.5861285722e-03
112         1.7935924232e-03
113         0.0000000000e+00
114         0.0000000000e+00
115         3.4297059164e-04
 Sym= B2
 Ene=         4.4846138881e-01
 Spin= Alpha
 Occup=         0.0000000000e+00
  1         0.0000000000e+00
  2         0.0000000000e+00
  3         0.0000000000e+00
  4         0.0000000000e+00
  5         0.0000000000e+00
  6         0.0000000000e+00
  7         4.3652517262e-02
  8         0.0000000000e+00
  9         0.0000000000e+00
 10         3.9416593662e-02
 11         0.0000000000e+00
 12         0.0000000000e+00
 13         1.0362891902e+00
 14         0.0000000000e+00
 15         0.0000000000e+00
 16         2.3008992846e+00
 17         0.0000000000e+00
 18         0.0000000000e+00
 19         0.0000000000e+00
 20        -1.4997785845e-02
 21         0.0000000000e+00
 22         0.0000000000e+00
 23         0.0000000000e+00
 24         0.0000000000e+00
 25         5.3947331110e-02
 26         0.0000000000e+00
 27         0.0000000000e+00
 28         0.0000000000e+00
 29         0.0000000000e+00
 30         6.2992246619e-01
 31         0.0000000000e+00
 32         0.0000000000e+00
 33         0.0000000000e+00
 34         0.0000000000e+00
 35        -3.7274225033e-03
 36         0.0000000000e+00
 37         0.0000000000e+00
 38         0.0000000000e+00
 39         1.0252368777e-03
 40         0.0000000000e+00
 41         0.0000000000e+00
 42         8.7962806276e-02
 43         0.0000000000e+00
 44         0.0000000000e+00
 45         0.0000000000e+00
 46        -5.3089822503e-02
 47         0.0000000000e+00
 48         0.0000000000e+00
 49         8.0133419158e-04
 50         0.0000000000e+00
 51         0.0000000000e+00
 52         0.0000000000e+00
 53        -9.6744600288e-03
 54         0.0000000000e+00
 55         0.0000000000e+00
 56         2.5915300916e-02
 57         3.1135088331e-01
 58         3.0100649371e+00
 59        -3.3947185025e-01
 60         0.0000000000e+00
 61        -2.3344186714e-02
 62         2.3204196957e-02
 63         0.0000000000e+00
 64         2.9362587835e-01
 65        -2.0558114596e-01
 66         0.0000000000e+00
 67         4.0177582213e-01
 68        -2.5128364851e-01
 69        -2.1133230937e-04
 70         0.0000000000e+00
 71        -1.1778871600e-02
 72        -1.0348953921e-02
 73         0.0000000000e+00
 74        -1.7063187382e-02
 75         0.0000000000e+00
 76        -1.1097366418e-01
 77        -7.0308069872e-02
 78         0.0000000000e+00
 79         7.3027739433e-03
 80         0.0000000000e+00
 81         1.2749609771e-03
 82         9.1944566808e-03
 83         0.0000000000e+00
 84         0.0000000000e+00
 85        -4.8547457393e-03
 86        -2.5915300916e-02
 87        -3.1135088331e-01
 88        -3.0100649371e+00
 89         3.3947185025e-01
 90         0.0000000000e+00
 91        -2.3344186714e-02
 92        -2.3204196957e-02
 93         0.0000000000e+00
 94         2.9362587835e-01
 95         2.0558114596e-01
 96         0.0000000000e+00
 97         4.0177582213e-01
 98         2.5128364851e-01
 99         2.1133230937e-04
100         0.0000000000e+00
101        -1.1778871600e-02
102         1.0348953921e-02
103         0.0000000000e+00
104         1.7063187382e-02
105         0.0000000000e+00
106        -1.1097366418e-01
107         7.0308069872e-02
108         0.0000000000e+00
109        -7.3027739433e-03
110         0.0000000000e+00
111         1.2749609771e-03
112        -9.1944566808e-03
113         0.0000000000e+00
114         0.0000000000e+00
115        -4.8547457393e-03
 Sym= A1
 Ene=         4.6248038219e-01
 Spin= Alpha
 Occup=         0.0000000000e+00
  1         3.0992253939e-02
  2        -1.2512464324e-02
  3         2.4858917455e-01
  4        -1.4419286090e+00
  5        -8.2085179926e+00
  6         0.0000000000e+00
  7         0.0000000000e+00
  8         6.4537856699e-02
  9         0.0000000000e+00
 10         0.0000000000e+00
 11         1.2793996110e-01
 12         0.0000000000e+00
 13         0.0000000000e+00
 14        -9.3301293573e-01
 15         0.0000000000e+00
 16         0.0000000000e+00
 17        -3.5715665328e+00
 18        -2.4849413673e-03
 19         0.0000000000e+00
 20         0.0000000000e+00
 21        -6.3434614392e-03
 22         0.0000000000e+00
 23         1.3903903828e-02
 24         0.0000000000e+00
 25         0.0000000000e+00
 26         3.5667200875e-02
 27         0.0000000000e+00
 28        -1.2171128553e-01
 29         0.0000000000e+00
 30         0.0000000000e+00
 31         6.1255706026e-01
 32         0.0000000000e+00
 33         1.2843854143e-03
 34         0.0000000000e+00
 35         0.0000000000e+00
 36         1.1259594461e-03
 37         0.0000000000e+00
 38         0.0000000000e+00
 39         0.0000000000e+00
 40         5.2979633394e-02
 41         0.0000000000e+00
 42         0.0000000000e+00
 43         1.1821809266e-01
 44         0.0000000000e+00
 45         0.0000000000e+00
 46         0.0000000000e+00
 47         7.7454618764e-03
 48         0.0000000000e+00
 49         0.0000000000e+00
 50         1.1001744294e-02
 51         0.0000000000e+00
 52         0.0000000000e+00
 53         0.0000000000e+00
 54        -6.3935969385e-03
 55         0.0000000000e+00
 56        -4.7216030007e-05
 57         2.1534691252e-01
 58         5.0648516885e+00
 59         1.2561232338e-01
 60         0.0000000000e+00
 61        -2.1489017675e-02
 62         8.7539813009e-03
 63         0.0000000000e+00
 64         3.0151119044e-01
 65        -2.2999792445e-01
 66         0.0000000000e+00
 67         1.3327431747e+00
 68        -1.0502936401e+00
 69         1.0227086269e-03
 70         0.0000000000e+00
 71        -8.9483765150e-03
 72        -7.8385128597e-03
 73         0.0000000000e+00
 74         2.9714253736e-02
 75         0.0000000000e+00
 76        -2.2547536915e-01
 77        -1.3726949677e-01
 78         0.0000000000e+00
 79         6.5138730725e-03
 80         0.0000000000e+00
 81         1.2796061869e-02
 82         2.1407258624e-02
 83         0.0000000000e+00
 84         0.0000000000e+00
 85        -1.1435306878e-02
 86        -4.7216030007e-05
 87         2.1534691252e-01
 88         5.0648516885e+00
 89         1.2561232338e-01
 90         0.0000000000e+00
 91         2.1489017675e-02
 92         8.7539813009e-03
 93         0.0000000000e+00
 94        -3.0151119044e-01
 95        -2.2999792445e-01
 96         0.0000000000e+00
 97        -1.3327431747e+00
 98        -1.0502936401e+00
 99         1.0227086269e-03
100         0.0000000000e+00
101         8.9483765150e-03
102        -7.8385128597e-03
103         0.0000000000e+00
104         2.9714253736e-02
105         0.0000000000e+00
106         2.2547536915e-01
107        -1.3726949677e-01
108         0.0000000000e+00
109         6.5138730725e-03
110         0.0000000000e+00
111        -1.2796061869e-02
112         2.1407258624e-02
113         0.0000000000e+00
114         0.0000000000e+00
115         1.1435306878e-02
 Sym= A1
 Ene=         5.0315344612e-01
 Spin= Alpha
 Occup=         0.0000000000e+00
  1         3.7821487872e-04
  2         7.4387081408e-02
  3         1.6990055130e-02
  4         2.9986487427e-01
  5        -2.1218651591e+00
  6         0.0000000000e+00
  7         0.0000000000e+00
  8         8.0539444033e-02
  9         0.0000000000e+00
 10         0.0000000000e+00
 11         1.7342986096e-01
 12         0.0000000000e+00
 13         0.0000000000e+00
 14         1.4227532194e-01
 15         0.0000000000e+00
 16         0.0000000000e+00
 17        -8.1731746042e-01
 18        -6.8033588884e-04
 19         0.0000000000e+00
 20         0.0000000000e+00
 21         8.5771261458e-03
 22         0.0000000000e+00
 23         2.0197313620e-02
 24         0.0000000000e+00
 25         0.0000000000e+00
 26        -1.9836030425e-02
 27         0.0000000000e+00
 28        -1.1984050727e-01
 29         0.0000000000e+00
 30         0.0000000000e+00
 31         3.8164615564e-02
 32         0.0000000000e+00
 33         2.4545394937e-04
 34         0.0000000000e+00
 35         0.0000000000e+00
 36        -1.9161413254e-03
 37         0.0000000000e+00
 38         0.0000000000e+00
 39         0.0000000000e+00
 40        -1.5615347237e-02
 41         0.0000000000e+00
 42         0.0000000000e+00
 43        -1.4935672919e-02
 44         0.0000000000e+00
 45         0.0000000000e+00
 46         0.0000000000e+00
 47         8.5698864213e-04
 48         0.0000000000e+00
 49         0.0000000000e+00
 50         1.4478718162e-03
 51         0.0000000000e+00
 52         0.0000000000e+00
 53         0.0000000000e+00
 54         7.8102744829e-04
 55         0.0000000000e+00
 56        -4.0791029596e-02
 57        -4.1396985492e-02
 58        -9.1652785975e-02
 59         8.4518557365e-01
 60         0.0000000000e+00
 61         3.1252436796e-02
 62        -1.0983580501e-02
 63         0.0000000000e+00
 64        -1.1433919555e-01
 65         6.8459052086e-02
 66         0.0000000000e+00
 67         8.1614512307e-01
 68        -2.5848159976e-01
 69         1.7816131467e-03
 70         0.0000000000e+00
 71         9.8674125773e-03
 72         3.8267518492e-03
 73         0.0000000000e+00
 74        -3.8634305829e-02
 75         0.0000000000e+00
 76        -1.4089843204e-02
 77        -1.6115246891e-02
 78         0.0000000000e+00
 79         9.4247145477e-04
 80         0.0000000000e+00
 81        -8.0526328842e-03
 82        -1.6280424550e-03
 83         0.0000000000e+00
 84         0.0000000000e+00
 85        -1.0762161349e-03
 86        -4.0791029596e-02
 87        -4.1396985492e-02
 88        -9.1652785975e-02
 89         8.4518557365e-01
 90         0.0000000000e+00
 91        -3.1252436796e-02
 92        -1.0983580501e-02
 93         0.0000000000e+00
 94         1.1433919555e-01
 95         6.8459052086e-02
 96         0.0000000000e+00
 97        -8.1614512307e-01
 98        -2.5848159976e-01
 99         1.7816131467e-03
100         0.0000000000e+00
101        -9.8674125773e-03
102         3.8267518492e-03
103         0.0000000000e+00
104        -3.8634305829e-02
105         0.0000000000e+00
106         1.4089843204e-02
107        -1.6115246891e-02
108         0.0000000000e+00
109         9.4247145477e-04
110         0.0000000000e+00
111         8.0526328842e-03
112        -1.6280424550e-03
113         0.0000000000e+00
114         0.0000000000e+00
115         1.0762161349e-03
 Sym= B1
 Ene=         5.8366766976e-01
 Spin= Alpha
 Occup=         0.0000000000e+00
  1         0.0000000000e+00
  2         0.0000000000e+00
  3         0.0000000000e+00
  4         0.0000000000e+00
  5         0.0000000000e+00
  6         1.3862079507e-01
  7         0.0000000000e+00
  8         0.0000000000e+00
  9         1.1841082591e-01
 10         0.0000000000e+00
 11         0.0000000000e+00
 12         7.4441664564e-01
 13         0.0000000000e+00
 14         0.0000000000e+00
 15        -1.3743674521e+00
 16         0.0000000000e+00
 17         0.0000000000e+00
 18         0.0000000000e+00
 19        -2.9673107664e-03
 20         0.0000000000e+00
 21         0.0000000000e+00
 22         0.0000000000e+00
 23         0.0000000000e+00
 24         2.3560036129e-02
 25         0.0000000000e+00
 26         0.0000000000e+00
 27         0.0000000000e+00
 28         0.0000000000e+00
 29        -1.1327141245e-01
 30         0.0000000000e+00
 31         0.0000000000e+00
 32         0.0000000000e+00
 33         0.0000000000e+00
 34         2.9057732702e-03
 35         0.0000000000e+00
 36         0.0000000000e+00
 37         0.0000000000e+00
 38        -5.2010976721e-03
 39         0.0000000000e+00
 40         0.0000000000e+00
 41        -1.4207518105e-02
 42         0.0000000000e+00
 43         0.0000000000e+00
 44         0.0000000000e+00
 45         1.9139482246e-02
 46         0.0000000000e+00
 47         0.0000000000e+00
 48        -9.2484006360e-04
 49         0.0000000000e+00
 50         0.0000000000e+00
 51         0.0000000000e+00
 52        -1.3892271698e-03
 53         0.0000000000e+00
 54         0.0000000000e+00
 55         0.0000000000e+00
 56         0.0000000000e+00
 57         0.0000000000e+00
 58         0.0000000000e+00
 59         0.0000000000e+00
 60        -8.8368646644e-03
 61         0.0000000000e+00
 62         0.0000000000e+00
 63         3.4366146776e-02
 64         0.0000000000e+00
 65         0.0000000000e+00
 66         7.8698682089e-02
 67         0.0000000000e+00
 68         0.0000000000e+00
 69         0.0000000000e+00
 70         4.4014234801e-03
 71         0.0000000000e+00
 72         0.0000000000e+00
 73        -6.8054402368e-03
 74         0.0000000000e+00
 75        -2.2894823677e-02
 76         0.0000000000e+00
 77         0.0000000000e+00
 78         4.3423104620e-02
 79         0.0000000000e+00
 80        -3.0269362102e-03
 81         0.0000000000e+00
 82         0.0000000000e+00
 83         5.8050212002e-03
 84         2.2550472567e-03
 85         0.0000000000e+00
 86         0.0000000000e+00
 87         0.0000000000e+00
 88         0.0000000000e+00
 89         0.0000000000e+00
 90        -8.8368646644e-03
 91         0.0000000000e+00
 92         0.0000000000e+00
 93         3.4366146776e-02
 94         0.0000000000e+00
 95         0.0000000000e+00
 96         7.8698682089e-02
 97         0.0000000000e+00
 98         0.0000000000e+00
 99         0.0000000000e+00
100         4.4014234801e-03
101         0.0000000000e+00
102         0.0000000000e+00
103         6.8054402368e-03
104         0.0000000000e+00
105        -2.2894823677e-02
106         0.0000000000e+00
107         0.0000000000e+00
108        -4.3423104620e-02
109         0.0000000000e+00
110        -3.0269362102e-03
111         0.0000000000e+00
112         0.0000000000e+00
113        -5.8050212002e-03
114         2.2550472567e-03
115         0.0000000000e+00
 Sym= A1
 Ene=         6.0319412185e-01
 Spin= Alpha
 Occup=         0.0000000000e+00
  1         5.3454041798e-04
  2         5.4784435640e-02
  3         1.8379722253e-02
  4         2.2983976950e-01
  5         2.5115586374e-01
  6         0.0000000000e+00
  7         0.0000000000e+00
  8         3.5773068703e-02
  9         0.0000000000e+00
 10         0.0000000000e+00
 11         3.6792314289e-02
 12         0.0000000000e+00
 13         0.0000000000e+00
 14         4.5500196463e-01
 15         0.0000000000e+00
 16         0.0000000000e+00
 17         1.4828985260e+00
 18        -4.4022461140e-03
 19         0.0000000000e+00
 20         0.0000000000e+00
 21        -7.4223315939e-04
 22         0.0000000000e+00
 23        -1.7499949607e-02
 24         0.0000000000e+00
 25         0.0000000000e+00
 26        -9.5395363979e-03
 27         0.0000000000e+00
 28         5.5645491949e-01
 29         0.0000000000e+00
 30         0.0000000000e+00
 31         2.9778506418e-01
 32         0.0000000000e+00
 33        -1.0636165553e-02
 34         0.0000000000e+00
 35         0.0000000000e+00
 36        -3.7596509355e-03
 37         0.0000000000e+00
 38         0.0000000000e+00
 39         0.0000000000e+00
 40         9.6749992064e-02
 41         0.0000000000e+00
 42         0.0000000000e+00
 43         1.7424782279e-02
 44         0.0000000000e+00
 45         0.0000000000e+00
 46         0.0000000000e+00
 47        -4.4152529687e-04
 48         0.0000000000e+00
 49         0.0000000000e+00
 50        -9.1844073289e-03
 51         0.0000000000e+00
 52         0.0000000000e+00
 53         0.0000000000e+00
 54        -6.4233746937e-03
 55         0.0000000000e+00
 56        -9.7187271699e-03
 57         6.3411710927e-02
 58        -9.8710635995e-01
 59         4.1275661193e-01
 60         0.0000000000e+00
 61         5.2256987555e-03
 62        -2.5554560421e-02
 63         0.0000000000e+00
 64        -6.3940868766e-02
 65         3.0088423201e-02
 66         0.0000000000e+00
 67        -5.6567127048e-01
 68        -1.0149090122e+00
 69        -6.8563150089e-03
 70         0.0000000000e+00
 71         2.5755579072e-03
 72         3.2701003220e-03
 73         0.0000000000e+00
 74         1.7423928519e-01
 75         0.0000000000e+00
 76        -5.2344328607e-02
 77         1.0367036479e-01
 78         0.0000000000e+00
 79        -9.6688415480e-03
 80         0.0000000000e+00
 81         2.6973240607e-02
 82        -8.0580034757e-03
 83         0.0000000000e+00
 84         0.0000000000e+00
 85         1.5716720717e-02
 86        -9.7187271699e-03
 87         6.3411710927e-02
 88        -9.8710635995e-01
 89         4.1275661193e-01
 90         0.0000000000e+00
 91        -5.2256987555e-03
 92        -2.5554560421e-02
 93         0.0000000000e+00
 94         6.3940868766e-02
 95         3.0088423201e-02
 96         0.0000000000e+00
 97         5.6567127048e-01
 98        -1.0149090122e+00
 99        -6.8563150089e-03
100         0.0000000000e+00
101        -2.5755579072e-03
102         3.2701003220e-03
103         0.0000000000e+00
104         1.7423928519e-01
105         0.0000000000e+00
106         5.2344328607e-02
107         1.0367036479e-01
108         0.0000000000e+00
109        -9.6688415480e-03
110         0.0000000000e+00
111        -2.6973240607e-02
112        -8.0580034757e-03
113         0.0000000000e+00
114         0.0000000000e+00
115        -1.5716720717e-02
 Sym= B2
 Ene=         6.1494342124e-01
 Spin= Alpha
 Occup=         0.0000000000e+00
  1         0.0000000000e+00
  2         0.0000000000e+00
  3         0.0000000000e+00
  4         0.0000000000e+00
  5         0.0000000000e+00
  6         0.0000000000e+00
  7         1.0915404647e-01
  8         0.0000000000e+00
  9         0.0000000000e+00
 10         2.7463356622e-01
 11         0.0000000000e+00
 12         0.0000000000e+00
 13        -8.5633527541e-01
 14         0.0000000000e+00
 15         0.0000000000e+00
 16        -3.8911855266e+00
 17         0.0000000000e+00
 18         0.0000000000e+00
 19         0.0000000000e+00
 20         5.3837508399e-03
 21         0.0000000000e+00
 22         0.0000000000e+00
 23         0.0000000000e+00
 24         0.0000000000e+00
 25        -3.4820627818e-02
 26         0.0000000000e+00
 27         0.0000000000e+00
 28         0.0000000000e+00
 29         0.0000000000e+00
 30        -8.8568830084e-01
 31         0.0000000000e+00
 32         0.0000000000e+00
 33         0.0000000000e+00
 34         0.0000000000e+00
 35         4.1904243898e-03
 36         0.0000000000e+00
 37         0.0000000000e+00
 38         0.0000000000e+00
 39        -2.3962650381e-03
 40         0.0000000000e+00
 41         0.0000000000e+00
 42        -1.0474004815e-01
 43         0.0000000000e+00
 44         0.0000000000e+00
 45         0.0000000000e+00
 46         4.1441063383e-02
 47         0.0000000000e+00
 48         0.0000000000e+00
 49        -4.5130817386e-03
 50         0.0000000000e+00
 51         0.0000000000e+00
 52         0.0000000000e+00
 53         1.0701446032e-02
 54         0.0000000000e+00
 55         0.0000000000e+00
 56         3.8774570341e-02
 57        -2.6272163945e-01
 58        -3.1623599193e+00
 59        -2.0692920151e+00
 60         0.0000000000e+00
 61        -3.9260744232e-03
 62         7.4713143782e-03
 63         0.0000000000e+00
 64        -2.0882634202e-01
 65         1.1821789801e-01
 66         0.0000000000e+00
 67        -1.5099413978e+00
 68         1.1973058332e+00
 69         1.2604902123e-03
 70         0.0000000000e+00
 71         2.1903577701e-03
 72        -1.3701338697e-04
 73         0.0000000000e+00
 74         2.4781243912e-02
 75         0.0000000000e+00
 76         1.5895155423e-01
 77         1.3451013104e-01
 78         0.0000000000e+00
 79        -7.7121676209e-03
 80         0.0000000000e+00
 81         2.3103504330e-03
 82        -6.5810477714e-03
 83         0.0000000000e+00
 84         0.0000000000e+00
 85         5.1101893584e-03
 86        -3.8774570341e-02
 87         2.6272163945e-01
 88         3.1623599193e+00
 89         2.0692920151e+00
 90         0.0000000000e+00
 91        -3.9260744232e-03
 92        -7.4713143782e-03
 93         0.0000000000e+00
 94        -2.0882634202e-01
 95        -1.1821789801e-01
 96         0.0000000000e+00
 97        -1.5099413978e+00
 98        -1.1973058332e+00
 99        -1.2604902123e-03
100         0.0000000000e+00
101         2.1903577701e-03
102         1.3701338697e-04
103         0.0000000000e+00
104        -2.4781243912e-02
105         0.0000000000e+00
106         1.5895155423e-01
107        -1.3451013104e-01
108         0.0000000000e+00
109         7.7121676209e-03
110         0.0000000000e+00
111         2.3103504330e-03
112         6.5810477714e-03
113         0.0000000000e+00
114         0.0000000000e+00
115         5.1101893584e-03
 Sym= A2
 Ene=         6.5768685016e-01
 Spin= Alpha
 Occup=         0.0000000000e+00
  1         0.0000000000e+00
  2         0.0000000000e+00
  3         0.0000000000e+00
  4         0.0000000000e+00
  5         0.0000000000e+00
  6         0.0000000000e+00
  7         0.0000000000e+00
  8         0.0000000000e+00
  9         0.0000000000e+00
 10         0.0000000000e+00
 11         0.0000000000e+00
 12         0.0000000000e+00
 13         0.0000000000e+00
 14         0.0000000000e+00
 15         0.0000000000e+00
 16         0.0000000000e+00
 17         0.0000000000e+00
 18         0.0000000000e+00
 19         0.0000000000e+00
 20         0.0000000000e+00
 21         0.0000000000e+00
 22         6.6126374795e-03
 23         0.0000000000e+00
 24         0.0000000000e+00
 25         0.0000000000e+00
 26         0.0000000000e+00
 27         1.5032101544e-02
 28         0.0000000000e+00
 29         0.0000000000e+00
 30         0.0000000000e+00
 31         0.0000000000e+00
 32        -2.7689887039e-01
 33         0.0000000000e+00
 34         0.0000000000e+00
 35         0.0000000000e+00
 36         0.0000000000e+00
 37         7.7866891889e-03
 38         0.0000000000e+00
 39         0.0000000000e+00
 40         0.0000000000e+00
 41         0.0000000000e+00
 42         0.0000000000e+00
 43         0.0000000000e+00
 44        -8.2731696792e-02
 45         0.0000000000e+00
 46         0.0000000000e+00
 47         0.0000000000e+00
 48         0.0000000000e+00
 49         0.0000000000e+00
 50         0.0000000000e+00
 51        -4.2937360047e-03
 52         0.0000000000e+00
 53         0.0000000000e+00
 54         0.0000000000e+00
 55         5.3919042676e-03
 56         0.0000000000e+00
 57         0.0000000000e+00
 58         0.0000000000e+00
 59         0.0000000000e+00
 60        -4.0300130780e-02
 61         0.0000000000e+00
 62         0.0000000000e+00
 63         1.1000622701e-01
 64         0.0000000000e+00
 65         0.0000000000e+00
 66        -1.1168243393e+00
 67         0.0000000000e+00
 68         0.0000000000e+00
 69         0.0000000000e+00
 70        -4.3819700633e-03
 71         0.0000000000e+00
 72         0.0000000000e+00
 73         8.5017194908e-04
 74         0.0000000000e+00
 75         9.9806406912e-02
 76         0.0000000000e+00
 77         0.0000000000e+00
 78        -9.2098747704e-02
 79         0.0000000000e+00
 80        -6.5139755312e-03
 81         0.0000000000e+00
 82         0.0000000000e+00
 83         2.0183979228e-02
 84         1.6515923898e-02
 85         0.0000000000e+00
 86         0.0000000000e+00
 87         0.0000000000e+00
 88         0.0000000000e+00
 89         0.0000000000e+00
 90         4.0300130780e-02
 91         0.0000000000e+00
 92         0.0000000000e+00
 93        -1.1000622701e-01
 94         0.0000000000e+00
 95         0.0000000000e+00
 96         1.1168243393e+00
 97         0.0000000000e+00
 98         0.0000000000e+00
 99         0.0000000000e+00
100         4.3819700633e-03
101         0.0000000000e+00
102         0.0000000000e+00
103         8.5017194908e-04
104         0.0000000000e+00
105        -9.9806406912e-02
106         0.0000000000e+00
107         0.0000000000e+00
108        -9.2098747704e-02
109         0.0000000000e+00
110         6.5139755312e-03
111         0.0000000000e+00
112         0.0000000000e+00
113         2.0183979228e-02
114        -1.6515923898e-02
115         0.0000000000e+00
 Sym= B1
 Ene=         7.1582591212e-01
 Spin= Alpha
 Occup=         0.0000000000e+00
  1         0.0000000000e+00
  2         0.0000000000e+00
  3         0.0000000000e+00
  4         0.0000000000e+00
  5         0.0000000000e+00
  6         2.2704244184e-02
  7         0.0000000000e+00
  8         0.0000000000e+00
  9         6.2482153935e-03
 10         0.0000000000e+00
 11         0.0000000000e+00
 12         3.7139563074e-01
 13         0.0000000000e+00
 14         0.0000000000e+00
 15         1.4696252057e+00
 16         0.0000000000e+00
 17         0.0000000000e+00
 18         0.0000000000e+00
 19        -7.0801859790e-03
 20         0.0000000000e+00
 21         0.0000000000e+00
 22         0.0000000000e+00
 23         0.0000000000e+00
 24        -1.2678625537e-02
 25         0.0000000000e+00
 26         0.0000000000e+00
 27         0.0000000000e+00
 28         0.0000000000e+00
 29         2.4341236332e-01
 30         0.0000000000e+00
 31         0.0000000000e+00
 32         0.0000000000e+00
 33         0.0000000000e+00
 34        -4.7796132315e-03
 35         0.0000000000e+00
 36         0.0000000000e+00
 37         0.0000000000e+00
 38         6.3694775048e-03
 39         0.0000000000e+00
 40         0.0000000000e+00
 41         4.0276585513e-02
 42         0.0000000000e+00
 43         0.0000000000e+00
 44         0.0000000000e+00
 45        -7.0490646796e-02
 46         0.0000000000e+00
 47         0.0000000000e+00
 48         7.7825511984e-04
 49         0.0000000000e+00
 50         0.0000000000e+00
 51         0.0000000000e+00
 52        -8.6952546093e-03
 53         0.0000000000e+00
 54         0.0000000000e+00
 55         0.0000000000e+00
 56         0.0000000000e+00
 57         0.0000000000e+00
 58         0.0000000000e+00
 59         0.0000000000e+00
 60        -4.0181610701e-02
 61         0.0000000000e+00
 62         0.0000000000e+00
 63         1.2572053016e-01
 64         0.0000000000e+00
 65         0.0000000000e+00
 66        -1.3291819029e+00
 67         0.0000000000e+00
 68         0.0000000000e+00
 69         0.0000000000e+00
 70         1.4576839479e-03
 71         0.0000000000e+00
 72         0.0000000000e+00
 73         7.7435010548e-03
 74         0.0000000000e+00
 75         5.8172421109e-02
 76         0.0000000000e+00
 77         0.0000000000e+00
 78        -1.4767230681e-01
 79         0.0000000000e+00
 80        -4.5740580119e-03
 81         0.0000000000e+00
 82         0.0000000000e+00
 83         2.1489294666e-02
 84         1.9173763596e-02
 85         0.0000000000e+00
 86         0.0000000000e+00
 87         0.0000000000e+00
 88         0.0000000000e+00
 89         0.0000000000e+00
 90        -4.0181610701e-02
 91         0.0000000000e+00
 92         0.0000000000e+00
 93         1.2572053016e-01
 94         0.0000000000e+00
 95         0.0000000000e+00
 96        -1.3291819029e+00
 97         0.0000000000e+00
 98         0.0000000000e+00
 99         0.0000000000e+00
100         1.4576839479e-03
101         0.0000000000e+00
102         0.0000000000e+00
103        -7.7435010548e-03
104         0.0000000000e+00
105         5.8172421109e-02
106         0.0000000000e+00
107         0.0000000000e+00
108         1.4767230681e-01
109         0.0000000000e+00
110        -4.5740580119e-03
111         0.0000000000e+00
112         0.0000000000e+00
113        -2.1489294666e-02
114         1.9173763596e-02
115         0.0000000000e+00
 Sym= A1
 Ene=         8.5226544992e-01
 Spin= Alpha
 Occup=         0.0000000000e+00
  1         1.3559840127e-02
  2        -1.5938597647e-01
  3        -1.5859079255e-01
  4        -1.0142080325e+00
  5         9.1591796639e+00
  6         0.0000000000e+00
  7         0.0000000000e+00
  8         5.0655155130e-02
  9         0.0000000000e+00
 10         0.0000000000e+00
 11        -1.1585071462e-01
 12         0.0000000000e+00
 13         0.0000000000e+00
 14         1.5105164387e+00
 15         0.0000000000e+00
 16         0.0000000000e+00
 17         2.1541766862e+00
 18        -7.2875539677e-03
 19         0.0000000000e+00
 20         0.0000000000e+00
 21         1.7921335596e-02
 22         0.0000000000e+00
 23         1.7274014672e-02
 24         0.0000000000e+00
 25         0.0000000000e+00
 26        -5.7491323885e-02
 27         0.0000000000e+00
 28        -3.2530623887e-02
 29         0.0000000000e+00
 30         0.0000000000e+00
 31        -5.7210435620e-01
 32         0.0000000000e+00
 33         6.9019691412e-03
 34         0.0000000000e+00
 35         0.0000000000e+00
 36         1.2170778838e-02
 37         0.0000000000e+00
 38         0.0000000000e+00
 39         0.0000000000e+00
 40        -1.0411018454e-01
 41         0.0000000000e+00
 42         0.0000000000e+00
 43        -2.0693026636e-01
 44         0.0000000000e+00
 45         0.0000000000e+00
 46         0.0000000000e+00
 47        -1.4941933534e-02
 48         0.0000000000e+00
 49         0.0000000000e+00
 50        -1.9845732874e-02
 51         0.0000000000e+00
 52         0.0000000000e+00
 53         0.0000000000e+00
 54         9.8178848287e-03
 55         0.0000000000e+00
 56         2.8222319336e-02
 57        -4.3717111001e-01
 58        -3.8057529786e+00
 59        -5.9565878725e-01
 60         0.0000000000e+00
 61         2.5895129388e-03
 62        -1.2204251560e-02
 63         0.0000000000e+00
 64        -3.1846464634e-01
 65         3.1632979729e-01
 66         0.0000000000e+00
 67        -1.0269721248e+00
 68         6.0184518098e-01
 69         3.2995628029e-03
 70         0.0000000000e+00
 71         2.2082770393e-02
 72         1.1639927860e-02
 73         0.0000000000e+00
 74        -4.7709200287e-02
 75         0.0000000000e+00
 76         1.1425210200e-01
 77         8.1664719509e-02
 78         0.0000000000e+00
 79        -4.2579444123e-03
 80         0.0000000000e+00
 81         6.5926297807e-03
 82         4.4785668908e-03
 83         0.0000000000e+00
 84         0.0000000000e+00
 85        -9.7909129698e-04
 86         2.8222319336e-02
 87        -4.3717111001e-01
 88        -3.8057529786e+00
 89        -5.9565878725e-01
 90         0.0000000000e+00
 91        -2.5895129388e-03
 92        -1.2204251560e-02
 93         0.0000000000e+00
 94         3.1846464634e-01
 95         3.1632979729e-01
 96         0.0000000000e+00
 97         1.0269721248e+00
 98         6.0184518098e-01
 99         3.2995628029e-03
100         0.0000000000e+00
101        -2.2082770393e-02
102         1.1639927860e-02
103         0.0000000000e+00
104        -4.7709200287e-02
105         0.0000000000e+00
106        -1.1425210200e-01
107         8.1664719509e-02
108         0.0000000000e+00
109        -4.2579444123e-03
110         0.0000000000e+00
111        -6.5926297807e-03
112         4.4785668908e-03
113         0.0000000000e+00
114         0.0000000000e+00
115         9.7909129698e-04
 Sym= B2
 Ene=         9.2071015958e-01
 Spin= Alpha
 Occup=         0.0000000000e+00
  1         0.0000000000e+00
  2         0.0000000000e+00
  3         0.0000000000e+00
  4         0.0000000000e+00
  5         0.0000000000e+00
  6         0.0000000000e+00
  7         1.6350250241e-02
  8         0.0000000000e+00
  9         0.0000000000e+00
 10        -2.3496835116e-02
 11         0.0000000000e+00
 12         0.0000000000e+00
 13         4.6969010109e-01
 14         0.0000000000e+00
 15         0.0000000000e+00
 16         2.1991981422e+00
 17         0.0000000000e+00
 18         0.0000000000e+00
 19         0.0000000000e+00
 20        -9.3458623981e-04
 21         0.0000000000e+00
 22         0.0000000000e+00
 23         0.0000000000e+00
 24         0.0000000000e+00
 25         5.4246478376e-03
 26         0.0000000000e+00
 27         0.0000000000e+00
 28         0.0000000000e+00
 29         0.0000000000e+00
 30         1.6314890066e-01
 31         0.0000000000e+00
 32         0.0000000000e+00
 33         0.0000000000e+00
 34         0.0000000000e+00
 35         4.0994983788e-03
 36         0.0000000000e+00
 37         0.0000000000e+00
 38         0.0000000000e+00
 39         4.8954873658e-03
 40         0.0000000000e+00
 41         0.0000000000e+00
 42        -5.5174235728e-02
 43         0.0000000000e+00
 44         0.0000000000e+00
 45         0.0000000000e+00
 46        -6.6757894765e-02
 47         0.0000000000e+00
 48         0.0000000000e+00
 49        -1.0747630711e-02
 50         0.0000000000e+00
 51         0.0000000000e+00
 52         0.0000000000e+00
 53        -7.4742283349e-03
 54         0.0000000000e+00
 55         0.0000000000e+00
 56        -8.8451410873e-03
 57         1.2220115319e-01
 58         1.0543713750e+00
 59         5.3812921728e-02
 60         0.0000000000e+00
 61        -3.4564262756e-02
 62        -3.6607537309e-02
 63         0.0000000000e+00
 64         2.1087243900e-01
 65         9.2771365561e-02
 66         0.0000000000e+00
 67        -1.1102349734e+00
 68        -1.3491517651e+00
 69        -2.8146598584e-03
 70         0.0000000000e+00
 71        -1.7020234245e-03
 72        -1.3121666390e-02
 73         0.0000000000e+00
 74         1.2498810009e-01
 75         0.0000000000e+00
 76        -4.9967011932e-02
 77         1.0580472117e-01
 78         0.0000000000e+00
 79        -1.4455990045e-02
 80         0.0000000000e+00
 81         2.7653335524e-02
 82        -6.4073295998e-05
 83         0.0000000000e+00
 84         0.0000000000e+00
 85         1.8795814198e-02
 86         8.8451410873e-03
 87        -1.2220115319e-01
 88        -1.0543713750e+00
 89        -5.3812921728e-02
 90         0.0000000000e+00
 91        -3.4564262756e-02
 92         3.6607537309e-02
 93         0.0000000000e+00
 94         2.1087243900e-01
 95        -9.2771365561e-02
 96         0.0000000000e+00
 97        -1.1102349734e+00
 98         1.3491517651e+00
 99         2.8146598584e-03
100         0.0000000000e+00
101        -1.7020234245e-03
102         1.3121666390e-02
103         0.0000000000e+00
104        -1.2498810009e-01
105         0.0000000000e+00
106        -4.9967011932e-02
107        -1.0580472117e-01
108         0.0000000000e+00
109         1.4455990045e-02
110         0.0000000000e+00
111         2.7653335524e-02
112         6.4073295998e-05
113         0.0000000000e+00
114         0.0000000000e+00
115         1.8795814198e-02
 Sym= A1
 Ene=         1.1127576776e+00
 Spin= Alpha
 Occup=         0.0000000000e+00
  1         2.3791728844e-02
  2        -4.5676440385e-02
  3         2.9514176870e-01
  4        -3.0865573546e+00
  5        -8.6271578368e+00
  6         0.0000000000e+00
  7         0.0000000000e+00
  8        -9.3810751542e-02
  9         0.0000000000e+00
 10         0.0000000000e+00
 11        -1.5784006622e-01
 12         0.0000000000e+00
 13         0.0000000000e+00
 14        -1.9274334607e+00
 15         0.0000000000e+00
 16         0.0000000000e+00
 17        -1.5185072595e+00
 18         5.0667426863e-03
 19         0.0000000000e+00
 20         0.0000000000e+00
 21        -1.8108106494e-02
 22         0.0000000000e+00
 23        -3.4682243097e-02
 24         0.0000000000e+00
 25         0.0000000000e+00
 26         1.1099644708e-01
 27         0.0000000000e+00
 28         1.7975549792e-01
 29         0.0000000000e+00
 30         0.0000000000e+00
 31         8.0022244815e-02
 32         0.0000000000e+00
 33         6.2085570559e-03
 34         0.0000000000e+00
 35         0.0000000000e+00
 36         2.5835617246e-02
 37         0.0000000000e+00
 38         0.0000000000e+00
 39         0.0000000000e+00
 40         2.0000112909e-02
 41         0.0000000000e+00
 42         0.0000000000e+00
 43        -3.9878489317e-02
 44         0.0000000000e+00
 45         0.0000000000e+00
 46         0.0000000000e+00
 47         4.1299103644e-03
 48         0.0000000000e+00
 49         0.0000000000e+00
 50         1.0296660447e-03
 51         0.0000000000e+00
 52         0.0000000000e+00
 53         0.0000000000e+00
 54         3.2808134682e-03
 55         0.0000000000e+00
 56         7.8232140213e-03
 57        -9.6920398403e-02
 58         5.0499091691e+00
 59         4.7057404399e-01
 60         0.0000000000e+00
 61        -2.5530323099e-03
 62         1.6461198192e-02
 63         0.0000000000e+00
 64         6.9511606926e-02
 65        -1.1562736990e-01
 66         0.0000000000e+00
 67         2.4746024570e+00
 68        -2.0609494289e+00
 69        -9.3959437879e-03
 70         0.0000000000e+00
 71         1.1796740138e-02
 72         3.3465613084e-03
 73         0.0000000000e+00
 74         8.5546320551e-02
 75         0.0000000000e+00
 76        -4.2327626922e-01
 77        -2.1621259541e-01
 78         0.0000000000e+00
 79         3.1815257932e-02
 80         0.0000000000e+00
 81         2.7020682006e-02
 82         5.5653629360e-02
 83         0.0000000000e+00
 84         0.0000000000e+00
 85        -2.0862571153e-02
 86         7.8232140213e-03
 87        -9.6920398403e-02
 88         5.0499091691e+00
 89         4.7057404399e-01
 90         0.0000000000e+00
 91         2.5530323099e-03
 92         1.6461198192e-02
 93         0.0000000000e+00
 94        -6.9511606926e-02
 95        -1.1562736990e-01
 96         0.0000000000e+00
 97        -2.4746024570e+00
 98        -2.0609494289e+00
 99        -9.3959437879e-03
100         0.0000000000e+00
101        -1.1796740138e-02
102         3.3465613084e-03
103         0.0000000000e+00
104         8.5546320551e-02
105         0.0000000000e+00
106         4.2327626922e-01
107        -2.1621259541e-01
108         0.0000000000e+00
109         3.1815257932e-02
110         0.0000000000e+00
111        -2.7020682006e-02
112         5.5653629360e-02
113         0.0000000000e+00
114         0.0000000000e+00
115         2.0862571153e-02
 Sym= B2
 Ene=         1.1557840089e+00
 Spin= Alpha
 Occup=         0.0000000000e+00
  1         0.0000000000e+00
  2         0.0000000000e+00
  3         0.0000000000e+00
  4         0.0000000000e+00
  5         0.0000000000e+00
  6         0.0000000000e+00
  7         1.0125976399e-01
  8         0.0000000000e+00
  9         0.0000000000e+00
 10         1.9913065713e-01
 11         0.0000000000e+00
 12         0.0000000000e+00
 13         1.6312698864e+00
 14         0.0000000000e+00
 15         0.0000000000e+00
 16         1.4348392335e+00
 17         0.0000000000e+00
 18         0.0000000000e+00
 19         0.0000000000e+00
 20        -1.8608375351e-02
 21         0.0000000000e+00
 22         0.0000000000e+00
 23         0.0000000000e+00
 24         0.0000000000e+00
 25         9.5428653662e-02
 26         0.0000000000e+00
 27         0.0000000000e+00
 28         0.0000000000e+00
 29         0.0000000000e+00
 30        -4.7529138631e-01
 31         0.0000000000e+00
 32         0.0000000000e+00
 33         0.0000000000e+00
 34         0.0000000000e+00
 35         1.6463772326e-02
 36         0.0000000000e+00
 37         0.0000000000e+00
 38         0.0000000000e+00
 39        -1.2344461372e-02
 40         0.0000000000e+00
 41         0.0000000000e+00
 42        -1.3014414194e-01
 43         0.0000000000e+00
 44         0.0000000000e+00
 45         0.0000000000e+00
 46         4.4256786390e-02
 47         0.0000000000e+00
 48         0.0000000000e+00
 49        -7.8464737410e-03
 50         0.0000000000e+00
 51         0.0000000000e+00
 52         0.0000000000e+00
 53         7.1133739854e-03
 54         0.0000000000e+00
 55         0.0000000000e+00
 56         4.1986662338e-02
 57        -2.1411135554e-01
 58         3.2335249596e+00
 59         1.0770649228e+00
 60         0.0000000000e+00
 61         3.5294981705e-03
 62        -6.3930608457e-03
 63         0.0000000000e+00
 64        -1.3704060735e-01
 65         6.2713960250e-02
 66         0.0000000000e+00
 67         2.3273269245e+00
 68        -1.7185209777e+00
 69         1.0960278834e-02
 70         0.0000000000e+00
 71         1.3505212228e-02
 72         2.3012844144e-02
 73         0.0000000000e+00
 74         3.6152262775e-02
 75         0.0000000000e+00
 76        -2.8525673369e-01
 77        -2.1919590546e-01
 78         0.0000000000e+00
 79         5.5594157471e-03
 80         0.0000000000e+00
 81         3.5019844207e-02
 82         3.1407383634e-02
 83         0.0000000000e+00
 84         0.0000000000e+00
 85        -2.2825882995e-02
 86        -4.1986662338e-02
 87         2.1411135554e-01
 88        -3.2335249596e+00
 89        -1.0770649228e+00
 90         0.0000000000e+00
 91         3.5294981705e-03
 92         6.3930608457e-03
 93         0.0000000000e+00
 94        -1.3704060735e-01
 95        -6.2713960250e-02
 96         0.0000000000e+00
 97         2.3273269245e+00
 98         1.7185209777e+00
 99        -1.0960278834e-02
100         0.0000000000e+00
101         1.3505212228e-02
102        -2.3012844144e-02
103         0.0000000000e+00
104        -3.6152262775e-02
105         0.0000000000e+00
106        -2.8525673369e-01
107         2.1919590546e-01
108         0.0000000000e+00
109        -5.5594157471e-03
110         0.0000000000e+00
111         3.5019844207e-02
112        -3.1407383634e-02
113         0.0000000000e+00
114         0.0000000000e+00
115        -2.2825882995e-02
 Sym= B2
 Ene=         1.3456802199e+00
 Spin= Alpha
 Occup=         0.0000000000e+00
  1         0.0000000000e+00
  2         0.0000000000e+00
  3         0.0000000000e+00
  4         0.0000000000e+00
  5         0.0000000000e+00
  6         0.0000000000e+00
  7         3.5165804755e-02
  8         0.0000000000e+00
  9         0.0000000000e+00
 10        -7.4319746724e-02
 11         0.0000000000e+00
 12         0.0000000000e+00
 13         4.2465077859e+00
 14         0.0000000000e+00
 15         0.0000000000e+00
 16         3.9132647678e+00
 17         0.0000000000e+00
 18         0.0000000000e+00
 19         0.0000000000e+00
 20        -2.9233104582e-02
 21         0.0000000000e+00
 22         0.0000000000e+00
 23         0.0000000000e+00
 24         0.0000000000e+00
 25         4.0086651364e-01
 26         0.0000000000e+00
 27         0.0000000000e+00
 28         0.0000000000e+00
 29         0.0000000000e+00
 30         2.1811761480e+00
 31         0.0000000000e+00
 32         0.0000000000e+00
 33         0.0000000000e+00
 34         0.0000000000e+00
 35         6.7249845688e-03
 36         0.0000000000e+00
 37         0.0000000000e+00
 38         0.0000000000e+00
 39        -1.0998647701e-02
 40         0.0000000000e+00
 41         0.0000000000e+00
 42         2.2518397724e-01
 43         0.0000000000e+00
 44         0.0000000000e+00
 45         0.0000000000e+00
 46        -1.3648538296e-01
 47         0.0000000000e+00
 48         0.0000000000e+00
 49        -3.5618022084e-03
 50         0.0000000000e+00
 51         0.0000000000e+00
 52         0.0000000000e+00
 53        -3.0442175246e-02
 54         0.0000000000e+00
 55         0.0000000000e+00
 56        -9.2909843516e-02
 57         9.0472942610e-02
 58         8.4816339034e+00
 59         2.2880583266e-01
 60         0.0000000000e+00
 61        -7.7986870008e-02
 62         6.8051849474e-02
 63         0.0000000000e+00
 64         8.8814154349e-01
 65        -7.5109385518e-01
 66         0.0000000000e+00
 67         2.9035506777e+00
 68        -1.9469267947e+00
 69         9.3662631404e-03
 70         0.0000000000e+00
 71        -3.0292909171e-02
 72        -1.4849922780e-02
 73         0.0000000000e+00
 74        -2.8617613149e-02
 75         0.0000000000e+00
 76        -5.6964047437e-01
 77        -4.0356472634e-01
 78         0.0000000000e+00
 79         2.7275459455e-02
 80         0.0000000000e+00
 81         2.8472765121e-02
 82         5.3349700620e-02
 83         0.0000000000e+00
 84         0.0000000000e+00
 85        -3.3168184732e-02
 86         9.2909843516e-02
 87        -9.0472942610e-02
 88        -8.4816339034e+00
 89        -2.2880583266e-01
 90         0.0000000000e+00
 91        -7.7986870008e-02
 92        -6.8051849474e-02
 93         0.0000000000e+00
 94         8.8814154349e-01
 95         7.5109385518e-01
 96         0.0000000000e+00
 97         2.9035506777e+00
 98         1.9469267947e+00
 99        -9.3662631404e-03
100         0.0000000000e+00
101        -3.0292909171e-02
102         1.4849922780e-02
103         0.0000000000e+00
104         2.8617613149e-02
105         0.0000000000e+00
106        -5.6964047437e-01
107         4.0356472634e-01
108         0.0000000000e+00
109        -2.7275459455e-02
110         0.0000000000e+00
111         2.8472765121e-02
112        -5.3349700620e-02
113         0.0000000000e+00
114         0.0000000000e+00
115        -3.3168184732e-02
 Sym= A1
 Ene=         1.4199529178e+00
 Spin= Alpha
 Occup=         0.0000000000e+00
  1         8.9406200690e-02
  2         1.4997868826e-01
  3         8.5033443017e-01
  4        -3.7645919453e+00
  5        -1.0753119090e+01
  6         0.0000000000e+00
  7         0.0000000000e+00
  8        -3.6653244598e-04
  9         0.0000000000e+00
 10         0.0000000000e+00
 11         3.0512300516e-03
 12         0.0000000000e+00
 13         0.0000000000e+00
 14        -2.4701866148e+00
 15         0.0000000000e+00
 16         0.0000000000e+00
 17        -2.6352935557e+00
 18         5.1613663132e-03
 19         0.0000000000e+00
 20         0.0000000000e+00
 21        -4.9233178298e-03
 22         0.0000000000e+00
 23        -1.6823703586e-02
 24         0.0000000000e+00
 25         0.0000000000e+00
 26         2.3789809610e-01
 27         0.0000000000e+00
 28         4.8757768381e-01
 29         0.0000000000e+00
 30         0.0000000000e+00
 31         1.8651492047e+00
 32         0.0000000000e+00
 33         1.4363656720e-03
 34         0.0000000000e+00
 35         0.0000000000e+00
 36         1.5913824025e-02
 37         0.0000000000e+00
 38         0.0000000000e+00
 39         0.0000000000e+00
 40         2.2560036823e-01
 41         0.0000000000e+00
 42         0.0000000000e+00
 43         3.2059464161e-01
 44         0.0000000000e+00
 45         0.0000000000e+00
 46         0.0000000000e+00
 47         2.0434652589e-02
 48         0.0000000000e+00
 49         0.0000000000e+00
 50         1.8999876403e-02
 51         0.0000000000e+00
 52         0.0000000000e+00
 53         0.0000000000e+00
 54        -2.2041120943e-02
 55         0.0000000000e+00
 56        -9.5079178206e-02
 57        -5.3970521348e-02
 58         7.6740163321e+00
 59        -1.7932810156e-01
 60         0.0000000000e+00
 61        -6.6819509422e-02
 62         6.1487591522e-02
 63         0.0000000000e+00
 64         8.5868925907e-01
 65        -7.3436104561e-01
 66         0.0000000000e+00
 67         1.6900227812e+00
 68        -1.9080525435e+00
 69        -3.6379675651e-03
 70         0.0000000000e+00
 71        -3.8200243998e-02
 72        -2.6536766770e-02
 73         0.0000000000e+00
 74         2.2182222699e-01
 75         0.0000000000e+00
 76        -5.5434209660e-01
 77        -2.0498821473e-01
 78         0.0000000000e+00
 79         1.8842701071e-02
 80         0.0000000000e+00
 81         5.7595797882e-02
 82         5.3629713990e-02
 83         0.0000000000e+00
 84         0.0000000000e+00
 85        -1.5318160065e-02
 86        -9.5079178206e-02
 87        -5.3970521348e-02
 88         7.6740163321e+00
 89        -1.7932810156e-01
 90         0.0000000000e+00
 91         6.6819509422e-02
 92         6.1487591522e-02
 93         0.0000000000e+00
 94        -8.5868925907e-01
 95        -7.3436104561e-01
 96         0.0000000000e+00
 97        -1.6900227812e+00
 98        -1.9080525435e+00
 99        -3.6379675651e-03
100         0.0000000000e+00
101         3.8200243998e-02
102        -2.6536766770e-02
103         0.0000000000e+00
104         2.2182222699e-01
105         0.0000000000e+00
106         5.5434209660e-01
107        -2.0498821473e-01
108         0.0000000000e+00
109         1.8842701071e-02
110         0.0000000000e+00
111        -5.7595797882e-02
112         5.3629713990e-02
113         0.0000000000e+00
114         0.0000000000e+00
115         1.5318160065e-02
 Sym= B1
 Ene=         1.4829581451e+00
 Spin= Alpha
 Occup=         0.0000000000e+00
  1         0.0000000000e+00
  2         0.0000000000e+00
  3         0.0000000000e+00
  4         0.0000000000e+00
  5         0.0000000000e+00
  6         9.9891499641e-03
  7         0.0000000000e+00
  8         0.0000000000e+00
  9        -6.0018358803e-02
 10         0.0000000000e+00
 11         0.0000000000e+00
 12         6.4505181712e-01
 13         0.0000000000e+00
 14         0.0000000000e+00
 15         1.1527907143e+00
 16         0.0000000000e+00
 17         0.0000000000e+00
 18         0.0000000000e+00
 19         4.2178054596e-02
 20         0.0000000000e+00
 21         0.0000000000e+00
 22         0.0000000000e+00
 23         0.0000000000e+00
 24        -6.1402673399e-02
 25         0.0000000000e+00
 26         0.0000000000e+00
 27         0.0000000000e+00
 28         0.0000000000e+00
 29         1.6080737381e+00
 30         0.0000000000e+00
 31         0.0000000000e+00
 32         0.0000000000e+00
 33         0.0000000000e+00
 34        -3.2334143087e-03
 35         0.0000000000e+00
 36         0.0000000000e+00
 37         0.0000000000e+00
 38         8.0698590812e-03
 39         0.0000000000e+00
 40         0.0000000000e+00
 41         7.4320966744e-02
 42         0.0000000000e+00
 43         0.0000000000e+00
 44         0.0000000000e+00
 45        -1.5372851422e-01
 46         0.0000000000e+00
 47         0.0000000000e+00
 48        -8.2380299271e-04
 49         0.0000000000e+00
 50         0.0000000000e+00
 51         0.0000000000e+00
 52        -3.7548544261e-02
 53         0.0000000000e+00
 54         0.0000000000e+00
 55         0.0000000000e+00
 56         0.0000000000e+00
 57         0.0000000000e+00
 58         0.0000000000e+00
 59         0.0000000000e+00
 60         1.2582467479e-02
 61         0.0000000000e+00
 62         0.0000000000e+00
 63        -1.0100664198e-01
 64         0.0000000000e+00
 65         0.0000000000e+00
 66        -1.1083388210e+00
 67         0.0000000000e+00
 68         0.0000000000e+00
 69         0.0000000000e+00
 70        -1.2417042653e-02
 71         0.0000000000e+00
 72         0.0000000000e+00
 73        -1.2042404238e-02
 74         0.0000000000e+00
 75         2.5694257216e-01
 76         0.0000000000e+00
 77         0.0000000000e+00
 78        -1.6395914743e-01
 79         0.0000000000e+00
 80        -7.3500981638e-03
 81         0.0000000000e+00
 82         0.0000000000e+00
 83         4.0095577976e-02
 84         4.3458531903e-02
 85         0.0000000000e+00
 86         0.0000000000e+00
 87         0.0000000000e+00
 88         0.0000000000e+00
 89         0.0000000000e+00
 90         1.2582467479e-02
 91         0.0000000000e+00
 92         0.0000000000e+00
 93        -1.0100664198e-01
 94         0.0000000000e+00
 95         0.0000000000e+00
 96        -1.1083388210e+00
 97         0.0000000000e+00
 98         0.0000000000e+00
 99         0.0000000000e+00
100        -1.2417042653e-02
101         0.0000000000e+00
102         0.0000000000e+00
103         1.2042404238e-02
104         0.0000000000e+00
105         2.5694257216e-01
106         0.0000000000e+00
107         0.0000000000e+00
108         1.6395914743e-01
109         0.0000000000e+00
110        -7.3500981638e-03
111         0.0000000000e+00
112         0.0000000000e+00
113        -4.0095577976e-02
114         4.3458531903e-02
115         0.0000000000e+00
 Sym= A2
 Ene=         1.4842002456e+00
 Spin= Alpha
 Occup=         0.0000000000e+00
  1         0.0000000000e+00
  2         0.0000000000e+00
  3         0.0000000000e+00
  4         0.0000000000e+00
  5         0.0000000000e+00
  6         0.0000000000e+00
  7         0.0000000000e+00
  8         0.0000000000e+00
  9         0.0000000000e+00
 10         0.0000000000e+00
 11         0.0000000000e+00
 12         0.0000000000e+00
 13         0.0000000000e+00
 14         0.0000000000e+00
 15         0.0000000000e+00
 16         0.0000000000e+00
 17         0.0000000000e+00
 18         0.0000000000e+00
 19         0.0000000000e+00
 20         0.0000000000e+00
 21         0.0000000000e+00
 22         3.5461260676e-02
 23         0.0000000000e+00
 24         0.0000000000e+00
 25         0.0000000000e+00
 26         0.0000000000e+00
 27        -2.4996585592e-02
 28         0.0000000000e+00
 29         0.0000000000e+00
 30         0.0000000000e+00
 31         0.0000000000e+00
 32         1.9162933343e+00
 33         0.0000000000e+00
 34         0.0000000000e+00
 35         0.0000000000e+00
 36         0.0000000000e+00
 37        -1.4773653878e-02
 38         0.0000000000e+00
 39         0.0000000000e+00
 40         0.0000000000e+00
 41         0.0000000000e+00
 42         0.0000000000e+00
 43         0.0000000000e+00
 44         2.8398317804e-01
 45         0.0000000000e+00
 46         0.0000000000e+00
 47         0.0000000000e+00
 48         0.0000000000e+00
 49         0.0000000000e+00
 50         0.0000000000e+00
 51         2.8525757009e-02
 52         0.0000000000e+00
 53         0.0000000000e+00
 54         0.0000000000e+00
 55        -3.2658330337e-02
 56         0.0000000000e+00
 57         0.0000000000e+00
 58         0.0000000000e+00
 59         0.0000000000e+00
 60        -1.8084544884e-02
 61         0.0000000000e+00
 62         0.0000000000e+00
 63         1.5233899603e-01
 64         0.0000000000e+00
 65         0.0000000000e+00
 66         1.0662920750e+00
 67         0.0000000000e+00
 68         0.0000000000e+00
 69         0.0000000000e+00
 70        -8.8972420482e-03
 71         0.0000000000e+00
 72         0.0000000000e+00
 73        -1.9766011495e-03
 74         0.0000000000e+00
 75        -2.0287316375e-01
 76         0.0000000000e+00
 77         0.0000000000e+00
 78         3.2953777814e-01
 79         0.0000000000e+00
 80         1.9755791883e-02
 81         0.0000000000e+00
 82         0.0000000000e+00
 83        -6.2660803005e-02
 84        -3.7259372469e-02
 85         0.0000000000e+00
 86         0.0000000000e+00
 87         0.0000000000e+00
 88         0.0000000000e+00
 89         0.0000000000e+00
 90         1.8084544884e-02
 91         0.0000000000e+00
 92         0.0000000000e+00
 93        -1.5233899603e-01
 94         0.0000000000e+00
 95         0.0000000000e+00
 96        -1.0662920750e+00
 97         0.0000000000e+00
 98         0.0000000000e+00
 99         0.0000000000e+00
100         8.8972420482e-03
101         0.0000000000e+00
102         0.0000000000e+00
103        -1.9766011495e-03
104         0.0000000000e+00
105         2.0287316375e-01
106         0.0000000000e+00
107         0.0000000000e+00
108         3.2953777814e-01
109         0.0000000000e+00
110        -1.9755791883e-02
111         0.0000000000e+00
112         0.0000000000e+00
113        -6.2660803005e-02
114         3.7259372469e-02
115         0.0000000000e+00
 Sym= A1
 Ene=         1.5758837689e+00
 Spin= Alpha
 Occup=         0.0000000000e+00
  1         1.8225393718e-02
  2         6.0492732400e-02
  3         2.1244135322e-01
  4        -6.0325356669e-01
  5        -4.6456246114e+00
  6         0.0000000000e+00
  7         0.0000000000e+00
  8        -1.3697683108e-02
  9         0.0000000000e+00
 10         0.0000000000e+00
 11         1.0277400100e-01
 12         0.0000000000e+00
 13         0.0000000000e+00
 14        -1.6410576509e+00
 15         0.0000000000e+00
 16         0.0000000000e+00
 17        -2.4315683732e+00
 18        -3.1474584689e-02
 19         0.0000000000e+00
 20         0.0000000000e+00
 21         6.8404092540e-04
 22         0.0000000000e+00
 23        -5.1600118479e-03
 24         0.0000000000e+00
 25         0.0000000000e+00
 26         2.2873229232e-02
 27         0.0000000000e+00
 28        -2.3248684740e+00
 29         0.0000000000e+00
 30         0.0000000000e+00
 31        -3.1666942567e-01
 32         0.0000000000e+00
 33         1.9587864259e-02
 34         0.0000000000e+00
 35         0.0000000000e+00
 36         9.0126956236e-03
 37         0.0000000000e+00
 38         0.0000000000e+00
 39         0.0000000000e+00
 40        -2.1730892399e-01
 41         0.0000000000e+00
 42         0.0000000000e+00
 43         2.3922058888e-02
 44         0.0000000000e+00
 45         0.0000000000e+00
 46         0.0000000000e+00
 47         3.7327567497e-03
 48         0.0000000000e+00
 49         0.0000000000e+00
 50         3.7261363548e-02
 51         0.0000000000e+00
 52         0.0000000000e+00
 53         0.0000000000e+00
 54         1.1635779147e-02
 55         0.0000000000e+00
 56        -3.4771323271e-02
 57        -1.0403516648e-01
 58         3.1133132391e+00
 59        -7.8925975075e-02
 60         0.0000000000e+00
 61        -5.5423133501e-02
 62        -1.6940166840e-03
 63         0.0000000000e+00
 64         4.3306193942e-01
 65        -2.9542347610e-02
 66         0.0000000000e+00
 67         1.3441234308e+00
 68         5.2508799247e-01
 69         4.0159477884e-03
 70         0.0000000000e+00
 71        -8.6666624415e-03
 72        -6.5411507303e-03
 73         0.0000000000e+00
 74        -3.7499384220e-01
 75         0.0000000000e+00
 76         9.6550248438e-03
 77        -3.6393999052e-01
 78         0.0000000000e+00
 79         2.0320310170e-02
 80         0.0000000000e+00
 81        -6.1777525687e-02
 82         1.9270877412e-02
 83         0.0000000000e+00
 84         0.0000000000e+00
 85        -4.8452184576e-02
 86        -3.4771323271e-02
 87        -1.0403516648e-01
 88         3.1133132391e+00
 89        -7.8925975075e-02
 90         0.0000000000e+00
 91         5.5423133501e-02
 92        -1.6940166840e-03
 93         0.0000000000e+00
 94        -4.3306193942e-01
 95        -2.9542347610e-02
 96         0.0000000000e+00
 97        -1.3441234308e+00
 98         5.2508799247e-01
 99         4.0159477884e-03
100         0.0000000000e+00
101         8.6666624415e-03
102        -6.5411507303e-03
103         0.0000000000e+00
104        -3.7499384220e-01
105         0.0000000000e+00
106        -9.6550248438e-03
107        -3.6393999052e-01
108         0.0000000000e+00
109         2.0320310170e-02
110         0.0000000000e+00
111         6.1777525687e-02
112         1.9270877412e-02
113         0.0000000000e+00
114         0.0000000000e+00
115         4.8452184576e-02
 Sym= A1
 Ene=         1.6866529695e+00
 Spin= Alpha
 Occup=         0.0000000000e+00
  1         2.0687691218e-02
  2        -1.4216670101e-02
  3        -4.7537947370e-03
  4         4.6128161681e-01
  5        -6.0120165213e+00
  6         0.0000000000e+00
  7         0.0000000000e+00
  8        -1.1274956463e-01
  9         0.0000000000e+00
 10         0.0000000000e+00
 11        -1.5520980461e-01
 12         0.0000000000e+00
 13         0.0000000000e+00
 14        -3.6253081575e-01
 15         0.0000000000e+00
 16         0.0000000000e+00
 17        -1.6620226074e+00
 18        -1.8671245731e-02
 19         0.0000000000e+00
 20         0.0000000000e+00
 21         3.1033794967e-02
 22         0.0000000000e+00
 23         5.7717039991e-02
 24         0.0000000000e+00
 25         0.0000000000e+00
 26        -1.2533905292e-01
 27         0.0000000000e+00
 28         1.5322189059e-01
 29         0.0000000000e+00
 30         0.0000000000e+00
 31         1.5255296812e+00
 32         0.0000000000e+00
 33        -1.9756108124e-02
 34         0.0000000000e+00
 35         0.0000000000e+00
 36        -2.4321729101e-02
 37         0.0000000000e+00
 38         0.0000000000e+00
 39         0.0000000000e+00
 40         1.5889466796e-01
 41         0.0000000000e+00
 42         0.0000000000e+00
 43         1.4400268227e-01
 44         0.0000000000e+00
 45         0.0000000000e+00
 46         0.0000000000e+00
 47         1.3345933726e-02
 48         0.0000000000e+00
 49         0.0000000000e+00
 50         5.0796918519e-03
 51         0.0000000000e+00
 52         0.0000000000e+00
 53         0.0000000000e+00
 54        -1.7766380350e-02
 55         0.0000000000e+00
 56         2.2233907657e-02
 57         1.0554321349e+00
 58         2.1235458428e+00
 59         4.8096847525e-01
 60         0.0000000000e+00
 61         6.4317938821e-02
 62        -1.5549335649e-02
 63         0.0000000000e+00
 64        -2.3400290931e-01
 65        -8.2830588901e-02
 66         0.0000000000e+00
 67         8.0367834965e-01
 68        -7.6309814256e-01
 69         1.5576709311e-02
 70         0.0000000000e+00
 71         7.2534709188e-03
 72        -1.1139860908e-02
 73         0.0000000000e+00
 74         7.6682545465e-02
 75         0.0000000000e+00
 76        -9.7759827191e-02
 77         2.2840556817e-01
 78         0.0000000000e+00
 79        -2.1140281476e-02
 80         0.0000000000e+00
 81         1.1498906417e-02
 82        -2.8362696534e-02
 83         0.0000000000e+00
 84         0.0000000000e+00
 85         1.9894931694e-02
 86         2.2233907657e-02
 87         1.0554321349e+00
 88         2.1235458428e+00
 89         4.8096847525e-01
 90         0.0000000000e+00
 91        -6.4317938821e-02
 92        -1.5549335649e-02
 93         0.0000000000e+00
 94         2.3400290931e-01
 95        -8.2830588901e-02
 96         0.0000000000e+00
 97        -8.0367834965e-01
 98        -7.6309814256e-01
 99         1.5576709311e-02
100         0.0000000000e+00
101        -7.2534709188e-03
102        -1.1139860908e-02
103         0.0000000000e+00
104         7.6682545465e-02
105         0.0000000000e+00
106         9.7759827191e-02
107         2.2840556817e-01
108         0.0000000000e+00
109        -2.1140281476e-02
110         0.0000000000e+00
111        -1.1498906417e-02
112        -2.8362696534e-02
113         0.0000000000e+00
114         0.0000000000e+00
115        -1.9894931694e-02
 Sym= B2
 Ene=         1.9128853531e+00
 Spin= Alpha
 Occup=         0.0000000000e+00
  1         0.0000000000e+00
  2         0.0000000000e+00
  3         0.0000000000e+00
  4         0.0000000000e+00
  5         0.0000000000e+00
  6         0.0000000000e+00
  7         1.4917568713e-01
  8         0.0000000000e+00
  9         0.0000000000e+00
 10         5.7405120373e-02
 11         0.0000000000e+00
 12         0.0000000000e+00
 13         4.2018787770e-01
 14         0.0000000000e+00
 15         0.0000000000e+00
 16         1.8351365603e+00
 17         0.0000000000e+00
 18         0.0000000000e+00
 19         0.0000000000e+00
 20         3.4119570284e-02
 21         0.0000000000e+00
 22         0.0000000000e+00
 23         0.0000000000e+00
 24         0.0000000000e+00
 25        -2.3248518989e-01
 26         0.0000000000e+00
 27         0.0000000000e+00
 28         0.0000000000e+00
 29         0.0000000000e+00
 30         2.0912545666e+00
 31         0.0000000000e+00
 32         0.0000000000e+00
 33         0.0000000000e+00
 34         0.0000000000e+00
 35        -3.0782634418e-02
 36         0.0000000000e+00
 37         0.0000000000e+00
 38         0.0000000000e+00
 39         1.5383060402e-02
 40         0.0000000000e+00
 41         0.0000000000e+00
 42         2.6072554448e-01
 43         0.0000000000e+00
 44         0.0000000000e+00
 45         0.0000000000e+00
 46        -3.1684133865e-02
 47         0.0000000000e+00
 48         0.0000000000e+00
 49         2.0355147312e-02
 50         0.0000000000e+00
 51         0.0000000000e+00
 52         0.0000000000e+00
 53        -2.4851178740e-02
 54         0.0000000000e+00
 55         0.0000000000e+00
 56         1.6202509682e-03
 57         1.6258186641e+00
 58         5.5385446674e-01
 59         8.7882890370e-01
 60         0.0000000000e+00
 61         4.7738759393e-02
 62        -4.5126019855e-02
 63         0.0000000000e+00
 64         3.5635604050e-02
 65         1.1842076462e-01
 66         0.0000000000e+00
 67         3.5685931867e-01
 68        -1.7559131113e-01
 69        -2.6933603428e-02
 70         0.0000000000e+00
 71        -1.1611303807e-02
 72         3.8793766621e-03
 73         0.0000000000e+00
 74        -4.5839951203e-02
 75         0.0000000000e+00
 76         2.8794282166e-01
 77        -4.3359872718e-02
 78         0.0000000000e+00
 79        -2.2197952610e-03
 80         0.0000000000e+00
 81        -6.1579321337e-02
 82        -4.3886692429e-02
 83         0.0000000000e+00
 84         0.0000000000e+00
 85         2.9529666798e-02
 86        -1.6202509682e-03
 87        -1.6258186641e+00
 88        -5.5385446674e-01
 89        -8.7882890370e-01
 90         0.0000000000e+00
 91         4.7738759393e-02
 92         4.5126019855e-02
 93         0.0000000000e+00
 94         3.5635604050e-02
 95        -1.1842076462e-01
 96         0.0000000000e+00
 97         3.5685931867e-01
 98         1.7559131113e-01
 99         2.6933603428e-02
100         0.0000000000e+00
101        -1.1611303807e-02
102        -3.8793766621e-03
103         0.0000000000e+00
104         4.5839951203e-02
105         0.0000000000e+00
106         2.8794282166e-01
107         4.3359872718e-02
108         0.0000000000e+00
109         2.2197952610e-03
110         0.0000000000e+00
111        -6.1579321337e-02
112         4.3886692429e-02
113         0.0000000000e+00
114         0.0000000000e+00
115         2.9529666798e-02
 Sym= B1
 Ene=         2.0628614690e+00
 Spin= Alpha
 Occup=         0.0000000000e+00
  1         0.0000000000e+00
  2         0.0000000000e+00
  3         0.0000000000e+00
  4         0.0000000000e+00
  5         0.0000000000e+00
  6         2.7637587578e-04
  7         0.0000000000e+00
  8         0.0000000000e+00
  9         5.8487941086e-02
 10         0.0000000000e+00
 11         0.0000000000e+00
 12        -5.0480704211e-01
 13         0.0000000000e+00
 14         0.0000000000e+00
 15        -4.4467637174e-01
 16         0.0000000000e+00
 17         0.0000000000e+00
 18         0.0000000000e+00
 19        -7.7991368685e-03
 20         0.0000000000e+00
 21         0.0000000000e+00
 22         0.0000000000e+00
 23         0.0000000000e+00
 24        -1.0285887799e-02
 25         0.0000000000e+00
 26         0.0000000000e+00
 27         0.0000000000e+00
 28         0.0000000000e+00
 29        -1.0113392831e+00
 30         0.0000000000e+00
 31         0.0000000000e+00
 32         0.0000000000e+00
 33         0.0000000000e+00
 34         8.6637730093e-03
 35         0.0000000000e+00
 36         0.0000000000e+00
 37         0.0000000000e+00
 38         2.4453399313e-03
 39         0.0000000000e+00
 40         0.0000000000e+00
 41        -9.0055232248e-02
 42         0.0000000000e+00
 43         0.0000000000e+00
 44         0.0000000000e+00
 45         6.7158494604e-02
 46         0.0000000000e+00
 47         0.0000000000e+00
 48        -1.6333755044e-02
 49         0.0000000000e+00
 50         0.0000000000e+00
 51         0.0000000000e+00
 52         1.6282496627e-02
 53         0.0000000000e+00
 54         0.0000000000e+00
 55         0.0000000000e+00
 56         0.0000000000e+00
 57         0.0000000000e+00
 58         0.0000000000e+00
 59         0.0000000000e+00
 60         2.1274161395e-03
 61         0.0000000000e+00
 62         0.0000000000e+00
 63        -5.1484127579e-02
 64         0.0000000000e+00
 65         0.0000000000e+00
 66         5.3074006701e-01
 67         0.0000000000e+00
 68         0.0000000000e+00
 69         0.0000000000e+00
 70        -6.9032143055e-02
 71         0.0000000000e+00
 72         0.0000000000e+00
 73        -6.9596468147e-02
 74         0.0000000000e+00
 75         4.2866251185e-01
 76         0.0000000000e+00
 77         0.0000000000e+00
 78         7.0971642927e-01
 79         0.0000000000e+00
 80        -3.0693399102e-03
 81         0.0000000000e+00
 82         0.0000000000e+00
 83        -1.6175930959e-02
 84        -4.4915461743e-02
 85         0.0000000000e+00
 86         0.0000000000e+00
 87         0.0000000000e+00
 88         0.0000000000e+00
 89         0.0000000000e+00
 90         2.1274161395e-03
 91         0.0000000000e+00
 92         0.0000000000e+00
 93        -5.1484127579e-02
 94         0.0000000000e+00
 95         0.0000000000e+00
 96         5.3074006701e-01
 97         0.0000000000e+00
 98         0.0000000000e+00
 99         0.0000000000e+00
100        -6.9032143055e-02
101         0.0000000000e+00
102         0.0000000000e+00
103         6.9596468147e-02
104         0.0000000000e+00
105         4.2866251185e-01
106         0.0000000000e+00
107         0.0000000000e+00
108        -7.0971642927e-01
109         0.0000000000e+00
110        -3.0693399102e-03
111         0.0000000000e+00
112         0.0000000000e+00
113         1.6175930959e-02
114        -4.4915461743e-02
115         0.0000000000e+00
 Sym= A1
 Ene=         2.1901097138e+00
 Spin= Alpha
 Occup=         0.0000000000e+00
  1         4.1907843493e-03
  2         3.4930244223e-02
  3         2.0175705594e-01
  4        -1.4331133920e+00
  5        -2.5559489155e+00
  6         0.0000000000e+00
  7         0.0000000000e+00
  8         5.6477941097e-02
  9         0.0000000000e+00
 10         0.0000000000e+00
 11         1.8169431706e-03
 12         0.0000000000e+00
 13         0.0000000000e+00
 14        -2.2493607772e-01
 15         0.0000000000e+00
 16         0.0000000000e+00
 17        -6.0620882481e-01
 18        -3.0681886193e-03
 19         0.0000000000e+00
 20         0.0000000000e+00
 21        -2.6642476504e-02
 22         0.0000000000e+00
 23        -3.6262371074e-02
 24         0.0000000000e+00
 25         0.0000000000e+00
 26         1.5555848711e-01
 27         0.0000000000e+00
 28         8.5987933975e-01
 29         0.0000000000e+00
 30         0.0000000000e+00
 31        -2.5572879749e-01
 32         0.0000000000e+00
 33        -7.0486418448e-03
 34         0.0000000000e+00
 35         0.0000000000e+00
 36         9.5470969267e-03
 37         0.0000000000e+00
 38         0.0000000000e+00
 39         0.0000000000e+00
 40         1.4493207335e-01
 41         0.0000000000e+00
 42         0.0000000000e+00
 43         6.3280861610e-02
 44         0.0000000000e+00
 45         0.0000000000e+00
 46         0.0000000000e+00
 47         1.5689612047e-02
 48         0.0000000000e+00
 49         0.0000000000e+00
 50        -1.4239277766e-02
 51         0.0000000000e+00
 52         0.0000000000e+00
 53         0.0000000000e+00
 54         8.2960528161e-03
 55         0.0000000000e+00
 56        -2.9779998833e-03
 57        -4.5738583306e-01
 58         2.1336302118e+00
 59        -3.2479247851e-02
 60         0.0000000000e+00
 61         3.0356519932e-02
 62         7.1971379403e-02
 63         0.0000000000e+00
 64        -1.7818999705e-01
 65        -5.3481072525e-01
 66         0.0000000000e+00
 67         7.7277308089e-01
 68        -5.3501658072e-01
 69         4.0307299221e-02
 70         0.0000000000e+00
 71         4.1212711839e-02
 72        -6.2313976563e-02
 73         0.0000000000e+00
 74        -1.0511254292e-01
 75         0.0000000000e+00
 76        -7.0877075077e-01
 77         5.1823563184e-01
 78         0.0000000000e+00
 79         2.6040206979e-02
 80         0.0000000000e+00
 81         4.0659189559e-02
 82         4.8231613381e-02
 83         0.0000000000e+00
 84         0.0000000000e+00
 85         1.1379637822e-02
 86        -2.9779998833e-03
 87        -4.5738583306e-01
 88         2.1336302118e+00
 89        -3.2479247851e-02
 90         0.0000000000e+00
 91        -3.0356519932e-02
 92         7.1971379403e-02
 93         0.0000000000e+00
 94         1.7818999705e-01
 95        -5.3481072525e-01
 96         0.0000000000e+00
 97        -7.7277308089e-01
 98        -5.3501658072e-01
 99         4.0307299221e-02
100         0.0000000000e+00
101        -4.1212711839e-02
102        -6.2313976563e-02
103         0.0000000000e+00
104        -1.0511254292e-01
105         0.0000000000e+00
106         7.0877075077e-01
107         5.1823563184e-01
108         0.0000000000e+00
109         2.6040206979e-02
110         0.0000000000e+00
111        -4.0659189559e-02
112         4.8231613381e-02
113         0.0000000000e+00
114         0.0000000000e+00
115        -1.1379637822e-02
 Sym= A2
 Ene=         2.2947885272e+00
 Spin= Alpha
 Occup=         0.0000000000e+00
  1         0.0000000000e+00
  2         0.0000000000e+00
  3         0.0000000000e+00
  4         0.0000000000e+00
  5         0.0000000000e+00
  6         0.0000000000e+00
  7         0.0000000000e+00
  8         0.0000000000e+00
  9         0.0000000000e+00
 10         0.0000000000e+00
 11         0.0000000000e+00
 12         0.0000000000e+00
 13         0.0000000000e+00
 14         0.0000000000e+00
 15         0.0000000000e+00
 16         0.0000000000e+00
 17         0.0000000000e+00
 18         0.0000000000e+00
 19         0.0000000000e+00
 20         0.0000000000e+00
 21         0.0000000000e+00
 22         1.5552111504e-02
 23         0.0000000000e+00
 24         0.0000000000e+00
 25         0.0000000000e+00
 26         0.0000000000e+00
 27        -1.4625083800e-01
 28         0.0000000000e+00
 29         0.0000000000e+00
 30         0.0000000000e+00
 31         0.0000000000e+00
 32        -4.6667716618e-01
 33         0.0000000000e+00
 34         0.0000000000e+00
 35         0.0000000000e+00
 36         0.0000000000e+00
 37         8.2717226521e-03
 38         0.0000000000e+00
 39         0.0000000000e+00
 40         0.0000000000e+00
 41         0.0000000000e+00
 42         0.0000000000e+00
 43         0.0000000000e+00
 44        -2.2125243978e-01
 45         0.0000000000e+00
 46         0.0000000000e+00
 47         0.0000000000e+00
 48         0.0000000000e+00
 49         0.0000000000e+00
 50         0.0000000000e+00
 51         1.1618670147e-03
 52         0.0000000000e+00
 53         0.0000000000e+00
 54         0.0000000000e+00
 55         1.0175234213e-02
 56         0.0000000000e+00
 57         0.0000000000e+00
 58         0.0000000000e+00
 59         0.0000000000e+00
 60        -9.3396825828e-02
 61         0.0000000000e+00
 62         0.0000000000e+00
 63         7.1211128570e-01
 64         0.0000000000e+00
 65         0.0000000000e+00
 66        -8.3153426475e-01
 67         0.0000000000e+00
 68         0.0000000000e+00
 69         0.0000000000e+00
 70        -6.4388478085e-02
 71         0.0000000000e+00
 72         0.0000000000e+00
 73        -1.1717311145e-02
 74         0.0000000000e+00
 75         6.4331124901e-01
 76         0.0000000000e+00
 77         0.0000000000e+00
 78        -7.1271025232e-02
 79         0.0000000000e+00
 80        -8.2292703437e-03
 81         0.0000000000e+00
 82         0.0000000000e+00
 83         3.4805604470e-02
 84         4.2065399656e-02
 85         0.0000000000e+00
 86         0.0000000000e+00
 87         0.0000000000e+00
 88         0.0000000000e+00
 89         0.0000000000e+00
 90         9.3396825828e-02
 91         0.0000000000e+00
 92         0.0000000000e+00
 93        -7.1211128570e-01
 94         0.0000000000e+00
 95         0.0000000000e+00
 96         8.3153426475e-01
 97         0.0000000000e+00
 98         0.0000000000e+00
 99         0.0000000000e+00
100         6.4388478085e-02
101         0.0000000000e+00
102         0.0000000000e+00
103        -1.1717311145e-02
104         0.0000000000e+00
105        -6.4331124901e-01
106         0.0000000000e+00
107         0.0000000000e+00
108        -7.1271025232e-02
109         0.0000000000e+00
110         8.2292703437e-03
111         0.0000000000e+00
112         0.0000000000e+00
113         3.4805604470e-02
114        -4.2065399656e-02
115         0.0000000000e+00
 Sym= B2
 Ene=         2.3653755328e+00
 Spin= Alpha
 Occup=         0.0000000000e+00
  1         0.0000000000e+00
  2         0.0000000000e+00
  3         0.0000000000e+00
  4         0.0000000000e+00
  5         0.0000000000e+00
  6         0.0000000000e+00
  7         2.8331980267e-02
  8         0.0000000000e+00
  9         0.0000000000e+00
 10         1.5720996215e-01
 11         0.0000000000e+00
 12         0.0000000000e+00
 13        -1.3387720465e+00
 14         0.0000000000e+00
 15         0.0000000000e+00
 16        -5.5838566296e-01
 17         0.0000000000e+00
 18         0.0000000000e+00
 19         0.0000000000e+00
 20         4.5724256557e-03
 21         0.0000000000e+00
 22         0.0000000000e+00
 23         0.0000000000e+00
 24         0.0000000000e+00
 25        -5.3053494936e-02
 26         0.0000000000e+00
 27         0.0000000000e+00
 28         0.0000000000e+00
 29         0.0000000000e+00
 30         8.0102385774e-01
 31         0.0000000000e+00
 32         0.0000000000e+00
 33         0.0000000000e+00
 34         0.0000000000e+00
 35        -2.5834658703e-02
 36         0.0000000000e+00
 37         0.0000000000e+00
 38         0.0000000000e+00
 39        -4.8626554770e-03
 40         0.0000000000e+00
 41         0.0000000000e+00
 42         5.1027526015e-01
 43         0.0000000000e+00
 44         0.0000000000e+00
 45         0.0000000000e+00
 46         2.3058198711e-01
 47         0.0000000000e+00
 48         0.0000000000e+00
 49         6.2258665450e-02
 50         0.0000000000e+00
 51         0.0000000000e+00
 52         0.0000000000e+00
 53         2.6257803037e-02
 54         0.0000000000e+00
 55         0.0000000000e+00
 56         1.0430766680e-02
 57         4.7142587226e-01
 58        -1.0535582373e+00
 59         5.9933265240e-02
 60         0.0000000000e+00
 61         2.0839769867e-02
 62        -1.1319012268e-02
 63         0.0000000000e+00
 64        -1.2950218799e-01
 65         6.1162732584e-02
 66         0.0000000000e+00
 67         2.1690479200e-01
 68         9.3750792895e-01
 69         6.2070740710e-02
 70         0.0000000000e+00
 71         4.1869460065e-02
 72        -2.6498193633e-02
 73         0.0000000000e+00
 74        -1.1599775522e+00
 75         0.0000000000e+00
 76        -6.0451005741e-02
 77        -6.1295904252e-04
 78         0.0000000000e+00
 79         6.1283554153e-02
 80         0.0000000000e+00
 81        -1.1002454162e-01
 82        -1.2321732950e-02
 83         0.0000000000e+00
 84         0.0000000000e+00
 85        -3.5719528822e-02
 86        -1.0430766680e-02
 87        -4.7142587226e-01
 88         1.0535582373e+00
 89        -5.9933265240e-02
 90         0.0000000000e+00
 91         2.0839769867e-02
 92         1.1319012268e-02
 93         0.0000000000e+00
 94        -1.2950218799e-01
 95        -6.1162732584e-02
 96         0.0000000000e+00
 97         2.1690479200e-01
 98        -9.3750792895e-01
 99        -6.2070740710e-02
100         0.0000000000e+00
101         4.1869460065e-02
102         2.6498193633e-02
103         0.0000000000e+00
104         1.1599775522e+00
105         0.0000000000e+00
106        -6.0451005741e-02
107         6.1295904252e-04
108         0.0000000000e+00
109        -6.1283554153e-02
110         0.0000000000e+00
111        -1.1002454162e-01
112         1.2321732950e-02
113         0.0000000000e+00
114         0.0000000000e+00
115        -3.5719528822e-02
 Sym= B1
 Ene=         2.4232358162e+00
 Spin= Alpha
 Occup=         0.0000000000e+00
  1         0.0000000000e+00
  2         0.0000000000e+00
  3         0.0000000000e+00
  4         0.0000000000e+00
  5         0.0000000000e+00
  6         9.3981584658e-02
  7         0.0000000000e+00
  8         0.0000000000e+00
  9         5.1703707159e-01
 10         0.0000000000e+00
 11         0.0000000000e+00
 12        -1.3113403644e+00
 13         0.0000000000e+00
 14         0.0000000000e+00
 15        -3.5484286807e-01
 16         0.0000000000e+00
 17         0.0000000000e+00
 18         0.0000000000e+00
 19         2.7237389015e-02
 20         0.0000000000e+00
 21         0.0000000000e+00
 22         0.0000000000e+00
 23         0.0000000000e+00
 24        -1.7674735608e-01
 25         0.0000000000e+00
 26         0.0000000000e+00
 27         0.0000000000e+00
 28         0.0000000000e+00
 29        -9.2772156562e-02
 30         0.0000000000e+00
 31         0.0000000000e+00
 32         0.0000000000e+00
 33         0.0000000000e+00
 34         5.1399044869e-03
 35         0.0000000000e+00
 36         0.0000000000e+00
 37         0.0000000000e+00
 38        -7.7746816881e-03
 39         0.0000000000e+00
 40         0.0000000000e+00
 41        -1.1001537510e-01
 42         0.0000000000e+00
 43         0.0000000000e+00
 44         0.0000000000e+00
 45         2.2585521549e-01
 46         0.0000000000e+00
 47         0.0000000000e+00
 48         5.3154205282e-03
 49         0.0000000000e+00
 50         0.0000000000e+00
 51         0.0000000000e+00
 52         2.4694334474e-02
 53         0.0000000000e+00
 54         0.0000000000e+00
 55         0.0000000000e+00
 56         0.0000000000e+00
 57         0.0000000000e+00
 58         0.0000000000e+00
 59         0.0000000000e+00
 60         1.0136562300e-01
 61         0.0000000000e+00
 62         0.0000000000e+00
 63        -7.8418512397e-01
 64         0.0000000000e+00
 65         0.0000000000e+00
 66         9.7889753832e-01
 67         0.0000000000e+00
 68         0.0000000000e+00
 69         0.0000000000e+00
 70         2.8974220401e-02
 71         0.0000000000e+00
 72         0.0000000000e+00
 73        -2.2089190816e-03
 74         0.0000000000e+00
 75        -4.8033326178e-01
 76         0.0000000000e+00
 77         0.0000000000e+00
 78         3.0195131482e-01
 79         0.0000000000e+00
 80         2.5245530760e-02
 81         0.0000000000e+00
 82         0.0000000000e+00
 83        -7.3741365339e-02
 84        -4.2672226592e-02
 85         0.0000000000e+00
 86         0.0000000000e+00
 87         0.0000000000e+00
 88         0.0000000000e+00
 89         0.0000000000e+00
 90         1.0136562300e-01
 91         0.0000000000e+00
 92         0.0000000000e+00
 93        -7.8418512397e-01
 94         0.0000000000e+00
 95         0.0000000000e+00
 96         9.7889753832e-01
 97         0.0000000000e+00
 98         0.0000000000e+00
 99         0.0000000000e+00
100         2.8974220401e-02
101         0.0000000000e+00
102         0.0000000000e+00
103         2.2089190816e-03
104         0.0000000000e+00
105        -4.8033326178e-01
106         0.0000000000e+00
107         0.0000000000e+00
108        -3.0195131482e-01
109         0.0000000000e+00
110         2.5245530760e-02
111         0.0000000000e+00
112         0.0000000000e+00
113         7.3741365339e-02
114        -4.2672226592e-02
115         0.0000000000e+00
 Sym= A1
 Ene=         2.4913003656e+00
 Spin= Alpha
 Occup=         0.0000000000e+00
  1         5.8045360885e-03
  2        -3.4880097988e-02
  3        -1.2343891504e-01
  4         1.6740675705e+00
  5         8.6780573951e-01
  6         0.0000000000e+00
  7         0.0000000000e+00
  8        -3.5120731576e-02
  9         0.0000000000e+00
 10         0.0000000000e+00
 11         1.8790489527e-01
 12         0.0000000000e+00
 13         0.0000000000e+00
 14        -6.1776773825e-01
 15         0.0000000000e+00
 16         0.0000000000e+00
 17        -3.2997175391e-01
 18         3.2875722640e-02
 19         0.0000000000e+00
 20         0.0000000000e+00
 21         2.0139548383e-02
 22         0.0000000000e+00
 23        -1.5000488870e-01
 24         0.0000000000e+00
 25         0.0000000000e+00
 26        -1.7373091779e-01
 27         0.0000000000e+00
 28        -6.3448010130e-01
 29         0.0000000000e+00
 30         0.0000000000e+00
 31        -7.6776779017e-02
 32         0.0000000000e+00
 33         1.0011308597e-02
 34         0.0000000000e+00
 35         0.0000000000e+00
 36        -1.3301482057e-02
 37         0.0000000000e+00
 38         0.0000000000e+00
 39         0.0000000000e+00
 40        -2.0833173533e-01
 41         0.0000000000e+00
 42         0.0000000000e+00
 43         6.4904646903e-02
 44         0.0000000000e+00
 45         0.0000000000e+00
 46         0.0000000000e+00
 47         1.1912716574e-02
 48         0.0000000000e+00
 49         0.0000000000e+00
 50         3.0014388885e-02
 51         0.0000000000e+00
 52         0.0000000000e+00
 53         0.0000000000e+00
 54        -8.3045002214e-04
 55         0.0000000000e+00
 56        -2.9396652801e-03
 57         2.5969175194e-01
 58        -9.0050765634e-01
 59        -9.1570380344e-02
 60         0.0000000000e+00
 61         4.1554511801e-02
 62         4.2284484735e-02
 63         0.0000000000e+00
 64        -1.4963866186e-01
 65        -4.7797899016e-01
 66         0.0000000000e+00
 67        -2.0523131531e-01
 68         1.2584660305e+00
 69         5.7473556266e-02
 70         0.0000000000e+00
 71        -5.2474856460e-02
 72        -2.4351767436e-03
 73         0.0000000000e+00
 74        -7.6911229965e-01
 75         0.0000000000e+00
 76         7.1203287617e-01
 77        -1.2261245150e-01
 78         0.0000000000e+00
 79         1.3925894402e-03
 80         0.0000000000e+00
 81        -7.6027122977e-02
 82        -2.9505925160e-02
 83         0.0000000000e+00
 84         0.0000000000e+00
 85        -7.9502353495e-03
 86        -2.9396652801e-03
 87         2.5969175194e-01
 88        -9.0050765634e-01
 89        -9.1570380344e-02
 90         0.0000000000e+00
 91        -4.1554511801e-02
 92         4.2284484735e-02
 93         0.0000000000e+00
 94         1.4963866186e-01
 95        -4.7797899016e-01
 96         0.0000000000e+00
 97         2.0523131531e-01
 98         1.2584660305e+00
 99         5.7473556266e-02
100         0.0000000000e+00
101         5.2474856460e-02
102        -2.4351767436e-03
103         0.0000000000e+00
104        -7.6911229965e-01
105         0.0000000000e+00
106        -7.1203287617e-01
107        -1.2261245150e-01
108         0.0000000000e+00
109         1.3925894402e-03
110         0.0000000000e+00
111         7.6027122977e-02
112        -2.9505925160e-02
113         0.0000000000e+00
114         0.0000000000e+00
115         7.9502353495e-03
 Sym= B2
 Ene=         2.5176064685e+00
 Spin= Alpha
 Occup=         0.0000000000e+00
  1         0.0000000000e+00
  2         0.0000000000e+00
  3         0.0000000000e+00
  4         0.0000000000e+00
  5         0.0000000000e+00
  6         0.0000000000e+00
  7         3.2622171576e-02
  8         0.0000000000e+00
  9         0.0000000000e+00
 10        -1.4359293876e-01
 11         0.0000000000e+00
 12         0.0000000000e+00
 13         6.7726914956e-01
 14         0.0000000000e+00
 15         0.0000000000e+00
 16         1.3375652883e+00
 17         0.0000000000e+00
 18         0.0000000000e+00
 19         0.0000000000e+00
 20         3.5326042579e-03
 21         0.0000000000e+00
 22         0.0000000000e+00
 23         0.0000000000e+00
 24         0.0000000000e+00
 25        -1.1224599103e-01
 26         0.0000000000e+00
 27         0.0000000000e+00
 28         0.0000000000e+00
 29         0.0000000000e+00
 30         1.1685151789e+00
 31         0.0000000000e+00
 32         0.0000000000e+00
 33         0.0000000000e+00
 34         0.0000000000e+00
 35        -1.3534487735e-02
 36         0.0000000000e+00
 37         0.0000000000e+00
 38         0.0000000000e+00
 39         8.4264617382e-03
 40         0.0000000000e+00
 41         0.0000000000e+00
 42        -4.0133949962e-02
 43         0.0000000000e+00
 44         0.0000000000e+00
 45         0.0000000000e+00
 46        -1.6910226647e-01
 47         0.0000000000e+00
 48         0.0000000000e+00
 49        -1.4467264013e-02
 50         0.0000000000e+00
 51         0.0000000000e+00
 52         0.0000000000e+00
 53        -2.0005413211e-02
 54         0.0000000000e+00
 55         0.0000000000e+00
 56        -2.0916223454e-02
 57         8.8573933842e-01
 58        -1.7213412549e-03
 59        -5.4687951159e-02
 60         0.0000000000e+00
 61        -5.8849724233e-02
 62        -8.8635777597e-02
 63         0.0000000000e+00
 64         8.8736467408e-01
 65         5.3899845425e-01
 66         0.0000000000e+00
 67        -1.3664348826e+00
 68        -7.5041711813e-01
 69         1.1887031214e-02
 70         0.0000000000e+00
 71         1.0183167375e-02
 72        -7.1737617416e-02
 73         0.0000000000e+00
 74        -1.1738631497e-02
 75         0.0000000000e+00
 76        -1.1176464491e-01
 77         6.4887030810e-01
 78         0.0000000000e+00
 79        -2.8771824366e-02
 80         0.0000000000e+00
 81         3.1337229925e-02
 82        -2.3989660551e-02
 83         0.0000000000e+00
 84         0.0000000000e+00
 85         5.2555282395e-02
 86         2.0916223454e-02
 87        -8.8573933842e-01
 88         1.7213412549e-03
 89         5.4687951159e-02
 90         0.0000000000e+00
 91        -5.8849724233e-02
 92         8.8635777597e-02
 93         0.0000000000e+00
 94         8.8736467408e-01
 95        -5.3899845425e-01
 96         0.0000000000e+00
 97        -1.3664348826e+00
 98         7.5041711813e-01
 99        -1.1887031214e-02
100         0.0000000000e+00
101         1.0183167375e-02
102         7.1737617416e-02
103         0.0000000000e+00
104         1.1738631497e-02
105         0.0000000000e+00
106        -1.1176464491e-01
107        -6.4887030810e-01
108         0.0000000000e+00
109         2.8771824366e-02
110         0.0000000000e+00
111         3.1337229925e-02
112         2.3989660551e-02
113         0.0000000000e+00
114         0.0000000000e+00
115         5.2555282395e-02
 Sym= B1
 Ene=         2.5822999525e+00
 Spin= Alpha
 Occup=         0.0000000000e+00
  1         0.0000000000e+00
  2         0.0000000000e+00
  3         0.0000000000e+00
  4         0.0000000000e+00
  5         0.0000000000e+00
  6         1.7006493607e-01
  7         0.0000000000e+00
  8         0.0000000000e+00
  9         7.1384724945e-01
 10         0.0000000000e+00
 11         0.0000000000e+00
 12         3.8910518791e-01
 13         0.0000000000e+00
 14         0.0000000000e+00
 15         1.0631560189e+00
 16         0.0000000000e+00
 17         0.0000000000e+00
 18         0.0000000000e+00
 19        -1.3505975271e-02
 20         0.0000000000e+00
 21         0.0000000000e+00
 22         0.0000000000e+00
 23         0.0000000000e+00
 24         5.5766268610e-02
 25         0.0000000000e+00
 26         0.0000000000e+00
 27         0.0000000000e+00
 28         0.0000000000e+00
 29         9.1003393585e-01
 30         0.0000000000e+00
 31         0.0000000000e+00
 32         0.0000000000e+00
 33         0.0000000000e+00
 34        -9.5209013396e-03
 35         0.0000000000e+00
 36         0.0000000000e+00
 37         0.0000000000e+00
 38         1.6697424256e-02
 39         0.0000000000e+00
 40         0.0000000000e+00
 41         1.3498079867e-01
 42         0.0000000000e+00
 43         0.0000000000e+00
 44         0.0000000000e+00
 45        -2.8875529203e-01
 46         0.0000000000e+00
 47         0.0000000000e+00
 48        -1.0162699231e-03
 49         0.0000000000e+00
 50         0.0000000000e+00
 51         0.0000000000e+00
 52        -3.5675357631e-02
 53         0.0000000000e+00
 54         0.0000000000e+00
 55         0.0000000000e+00
 56         0.0000000000e+00
 57         0.0000000000e+00
 58         0.0000000000e+00
 59         0.0000000000e+00
 60         2.7583578969e-02
 61         0.0000000000e+00
 62         0.0000000000e+00
 63        -1.8018963049e-01
 64         0.0000000000e+00
 65         0.0000000000e+00
 66        -8.3243705813e-01
 67         0.0000000000e+00
 68         0.0000000000e+00
 69         0.0000000000e+00
 70        -5.7212160306e-02
 71         0.0000000000e+00
 72         0.0000000000e+00
 73         6.2161697429e-02
 74         0.0000000000e+00
 75         6.8672957890e-01
 76         0.0000000000e+00
 77         0.0000000000e+00
 78        -8.1257367115e-01
 79         0.0000000000e+00
 80        -1.0134307349e-02
 81         0.0000000000e+00
 82         0.0000000000e+00
 83         2.4664176735e-02
 84         3.5859611637e-02
 85         0.0000000000e+00
 86         0.0000000000e+00
 87         0.0000000000e+00
 88         0.0000000000e+00
 89         0.0000000000e+00
 90         2.7583578969e-02
 91         0.0000000000e+00
 92         0.0000000000e+00
 93        -1.8018963049e-01
 94         0.0000000000e+00
 95         0.0000000000e+00
 96        -8.3243705813e-01
 97         0.0000000000e+00
 98         0.0000000000e+00
 99         0.0000000000e+00
100        -5.7212160306e-02
101         0.0000000000e+00
102         0.0000000000e+00
103        -6.2161697429e-02
104         0.0000000000e+00
105         6.8672957890e-01
106         0.0000000000e+00
107         0.0000000000e+00
108         8.1257367115e-01
109         0.0000000000e+00
110        -1.0134307349e-02
111         0.0000000000e+00
112         0.0000000000e+00
113        -2.4664176735e-02
114         3.5859611637e-02
115         0.0000000000e+00
 Sym= A2
 Ene=         2.5905665409e+00
 Spin= Alpha
 Occup=         0.0000000000e+00
  1         0.0000000000e+00
  2         0.0000000000e+00
  3         0.0000000000e+00
  4         0.0000000000e+00
  5         0.0000000000e+00
  6         0.0000000000e+00
  7         0.0000000000e+00
  8         0.0000000000e+00
  9         0.0000000000e+00
 10         0.0000000000e+00
 11         0.0000000000e+00
 12         0.0000000000e+00
 13         0.0000000000e+00
 14         0.0000000000e+00
 15         0.0000000000e+00
 16         0.0000000000e+00
 17         0.0000000000e+00
 18         0.0000000000e+00
 19         0.0000000000e+00
 20         0.0000000000e+00
 21         0.0000000000e+00
 22         2.7180762258e-02
 23         0.0000000000e+00
 24         0.0000000000e+00
 25         0.0000000000e+00
 26         0.0000000000e+00
 27        -1.2261627510e-01
 28         0.0000000000e+00
 29         0.0000000000e+00
 30         0.0000000000e+00
 31         0.0000000000e+00
 32         1.9641918409e-01
 33         0.0000000000e+00
 34         0.0000000000e+00
 35         0.0000000000e+00
 36         0.0000000000e+00
 37         1.1403162490e-02
 38         0.0000000000e+00
 39         0.0000000000e+00
 40         0.0000000000e+00
 41         0.0000000000e+00
 42         0.0000000000e+00
 43         0.0000000000e+00
 44        -2.1938377992e-01
 45         0.0000000000e+00
 46         0.0000000000e+00
 47         0.0000000000e+00
 48         0.0000000000e+00
 49         0.0000000000e+00
 50         0.0000000000e+00
 51        -1.8809833189e-02
 52         0.0000000000e+00
 53         0.0000000000e+00
 54         0.0000000000e+00
 55        -3.9227564928e-04
 56         0.0000000000e+00
 57         0.0000000000e+00
 58         0.0000000000e+00
 59         0.0000000000e+00
 60        -6.0956053034e-02
 61         0.0000000000e+00
 62         0.0000000000e+00
 63         4.6435164547e-01
 64         0.0000000000e+00
 65         0.0000000000e+00
 66        -5.5441065153e-01
 67         0.0000000000e+00
 68         0.0000000000e+00
 69         0.0000000000e+00
 70         4.8511115201e-02
 71         0.0000000000e+00
 72         0.0000000000e+00
 73         8.0012484701e-02
 74         0.0000000000e+00
 75        -2.9315372193e-01
 76         0.0000000000e+00
 77         0.0000000000e+00
 78        -8.5919601658e-01
 79         0.0000000000e+00
 80        -9.1532997236e-03
 81         0.0000000000e+00
 82         0.0000000000e+00
 83         4.3383263419e-02
 84         1.4483384335e-02
 85         0.0000000000e+00
 86         0.0000000000e+00
 87         0.0000000000e+00
 88         0.0000000000e+00
 89         0.0000000000e+00
 90         6.0956053034e-02
 91         0.0000000000e+00
 92         0.0000000000e+00
 93        -4.6435164547e-01
 94         0.0000000000e+00
 95         0.0000000000e+00
 96         5.5441065153e-01
 97         0.0000000000e+00
 98         0.0000000000e+00
 99         0.0000000000e+00
100        -4.8511115201e-02
101         0.0000000000e+00
102         0.0000000000e+00
103         8.0012484701e-02
104         0.0000000000e+00
105         2.9315372193e-01
106         0.0000000000e+00
107         0.0000000000e+00
108        -8.5919601658e-01
109         0.0000000000e+00
110         9.1532997236e-03
111         0.0000000000e+00
112         0.0000000000e+00
113         4.3383263419e-02
114        -1.4483384335e-02
115         0.0000000000e+00
 Sym= B2
 Ene=         2.6544873973e+00
 Spin= Alpha
 Occup=         0.0000000000e+00
  1         0.0000000000e+00
  2         0.0000000000e+00
  3         0.0000000000e+00
  4         0.0000000000e+00
  5         0.0000000000e+00
  6         0.0000000000e+00
  7         1.1244410685e-01
  8         0.0000000000e+00
  9         0.0000000000e+00
 10        -2.5591640220e-03
 11         0.0000000000e+00
 12         0.0000000000e+00
 13        -1.4641913248e+00
 14         0.0000000000e+00
 15         0.0000000000e+00
 16        -1.3637737715e+00
 17         0.0000000000e+00
 18         0.0000000000e+00
 19         0.0000000000e+00
 20        -7.3829475330e-03
 21         0.0000000000e+00
 22         0.0000000000e+00
 23         0.0000000000e+00
 24         0.0000000000e+00
 25        -2.7203046341e-01
 26         0.0000000000e+00
 27         0.0000000000e+00
 28         0.0000000000e+00
 29         0.0000000000e+00
 30         6.2452880479e-01
 31         0.0000000000e+00
 32         0.0000000000e+00
 33         0.0000000000e+00
 34         0.0000000000e+00
 35        -2.8873590182e-02
 36         0.0000000000e+00
 37         0.0000000000e+00
 38         0.0000000000e+00
 39         9.8084085509e-03
 40         0.0000000000e+00
 41         0.0000000000e+00
 42         3.4006875155e-01
 43         0.0000000000e+00
 44         0.0000000000e+00
 45         0.0000000000e+00
 46        -3.0556802285e-02
 47         0.0000000000e+00
 48         0.0000000000e+00
 49         1.6728319134e-02
 50         0.0000000000e+00
 51         0.0000000000e+00
 52         0.0000000000e+00
 53        -2.7240924013e-02
 54         0.0000000000e+00
 55         0.0000000000e+00
 56         2.1665908375e-02
 57         6.4620791433e-01
 58        -3.2758093707e+00
 59        -7.2039199002e-01
 60         0.0000000000e+00
 61         1.4788585744e-02
 62         2.0982982578e-02
 63         0.0000000000e+00
 64         4.3196183074e-01
 65        -4.6537747012e-01
 66         0.0000000000e+00
 67        -1.9707683435e+00
 68         1.9168127843e+00
 69        -4.0141764486e-03
 70         0.0000000000e+00
 71        -8.0943237235e-02
 72        -5.7254780416e-02
 73         0.0000000000e+00
 74        -2.9959796514e-01
 75         0.0000000000e+00
 76         1.0312074883e+00
 77         5.4361819803e-01
 78         0.0000000000e+00
 79         2.2741182523e-03
 80         0.0000000000e+00
 81        -7.7073145213e-02
 82        -4.7591438763e-02
 83         0.0000000000e+00
 84         0.0000000000e+00
 85         3.2738368853e-02
 86        -2.1665908375e-02
 87        -6.4620791433e-01
 88         3.2758093707e+00
 89         7.2039199002e-01
 90         0.0000000000e+00
 91         1.4788585744e-02
 92        -2.0982982578e-02
 93         0.0000000000e+00
 94         4.3196183074e-01
 95         4.6537747012e-01
 96         0.0000000000e+00
 97        -1.9707683435e+00
 98        -1.9168127843e+00
 99         4.0141764486e-03
100         0.0000000000e+00
101        -8.0943237235e-02
102         5.7254780416e-02
103         0.0000000000e+00
104         2.9959796514e-01
105         0.0000000000e+00
106         1.0312074883e+00
107        -5.4361819803e-01
108         0.0000000000e+00
109        -2.2741182523e-03
110         0.0000000000e+00
111        -7.7073145213e-02
112         4.7591438763e-02
113         0.0000000000e+00
114         0.0000000000e+00
115         3.2738368853e-02
 Sym= A1
 Ene=         2.6712027057e+00
 Spin= Alpha
 Occup=         0.0000000000e+00
  1         2.7088171716e-02
  2         1.4296098829e-01
  3         4.7944074550e-01
  4        -3.9707365858e+00
  5        -4.5044163234e+00
  6         0.0000000000e+00
  7         0.0000000000e+00
  8         7.9949341507e-02
  9         0.0000000000e+00
 10         0.0000000000e+00
 11         3.9555963170e-02
 12         0.0000000000e+00
 13         0.0000000000e+00
 14        -2.1345050019e+00
 15         0.0000000000e+00
 16         0.0000000000e+00
 17        -9.4247691015e-01
 18         2.3168643550e-02
 19         0.0000000000e+00
 20         0.0000000000e+00
 21         3.9687169935e-03
 22         0.0000000000e+00
 23        -9.9112608956e-02
 24         0.0000000000e+00
 25         0.0000000000e+00
 26         2.0608846810e-01
 27         0.0000000000e+00
 28        -5.5890403768e-01
 29         0.0000000000e+00
 30         0.0000000000e+00
 31        -5.7943411550e-01
 32         0.0000000000e+00
 33         2.7401188944e-02
 34         0.0000000000e+00
 35         0.0000000000e+00
 36         3.3894926698e-02
 37         0.0000000000e+00
 38         0.0000000000e+00
 39         0.0000000000e+00
 40        -2.6308050558e-01
 41         0.0000000000e+00
 42         0.0000000000e+00
 43        -1.9133078401e-01
 44         0.0000000000e+00
 45         0.0000000000e+00
 46         0.0000000000e+00
 47        -1.0043059985e-02
 48         0.0000000000e+00
 49         0.0000000000e+00
 50        -3.8719378641e-03
 51         0.0000000000e+00
 52         0.0000000000e+00
 53         0.0000000000e+00
 54         2.5326036467e-02
 55         0.0000000000e+00
 56        -3.9155116635e-02
 57        -3.8963243680e-01
 58         3.4323071034e+00
 59         2.3834669504e-01
 60         0.0000000000e+00
 61        -3.8198036505e-03
 62         2.3459164846e-02
 63         0.0000000000e+00
 64        -2.4621148128e-01
 65         1.6211241985e-01
 66         0.0000000000e+00
 67         2.3055493251e+00
 68        -1.2027340382e+00
 69         1.5157898315e-02
 70         0.0000000000e+00
 71         7.1180801182e-02
 72         5.6547052411e-02
 73         0.0000000000e+00
 74        -4.2581596696e-01
 75         0.0000000000e+00
 76        -9.3949891074e-01
 77        -9.6651696249e-01
 78         0.0000000000e+00
 79         5.6994417734e-02
 80         0.0000000000e+00
 81        -3.7483505887e-03
 82         9.3933124980e-02
 83         0.0000000000e+00
 84         0.0000000000e+00
 85        -4.3450963436e-02
 86        -3.9155116635e-02
 87        -3.8963243680e-01
 88         3.4323071034e+00
 89         2.3834669504e-01
 90         0.0000000000e+00
 91         3.8198036505e-03
 92         2.3459164846e-02
 93         0.0000000000e+00
 94         2.4621148128e-01
 95         1.6211241985e-01
 96         0.0000000000e+00
 97        -2.3055493251e+00
 98        -1.2027340382e+00
 99         1.5157898315e-02
100         0.0000000000e+00
101        -7.1180801182e-02
102         5.6547052411e-02
103         0.0000000000e+00
104        -4.2581596696e-01
105         0.0000000000e+00
106         9.3949891074e-01
107        -9.6651696249e-01
108         0.0000000000e+00
109         5.6994417734e-02
110         0.0000000000e+00
111         3.7483505887e-03
112         9.3933124980e-02
113         0.0000000000e+00
114         0.0000000000e+00
115         4.3450963436e-02
 Sym= A2
 Ene=         2.8388197448e+00
 Spin= Alpha
 Occup=         0.0000000000e+00
  1         0.0000000000e+00
  2         0.0000000000e+00
  3         0.0000000000e+00
  4         0.0000000000e+00
  5         0.0000000000e+00
  6         0.0000000000e+00
  7         0.0000000000e+00
  8         0.0000000000e+00
  9         0.0000000000e+00
 10         0.0000000000e+00
 11         0.0000000000e+00
 12         0.0000000000e+00
 13         0.0000000000e+00
 14         0.0000000000e+00
 15         0.0000000000e+00
 16         0.0000000000e+00
 17         0.0000000000e+00
 18         0.0000000000e+00
 19         0.0000000000e+00
 20         0.0000000000e+00
 21         0.0000000000e+00
 22         2.8224159074e-02
 23         0.0000000000e+00
 24         0.0000000000e+00
 25         0.0000000000e+00
 26         0.0000000000e+00
 27         7.8993484653e-03
 28         0.0000000000e+00
 29         0.0000000000e+00
 30         0.0000000000e+00
 31         0.0000000000e+00
 32        -2.2720743764e+00
 33         0.0000000000e+00
 34         0.0000000000e+00
 35         0.0000000000e+00
 36         0.0000000000e+00
 37         1.7601778482e-02
 38         0.0000000000e+00
 39         0.0000000000e+00
 40         0.0000000000e+00
 41         0.0000000000e+00
 42         0.0000000000e+00
 43         0.0000000000e+00
 44        -4.6327528190e-01
 45         0.0000000000e+00
 46         0.0000000000e+00
 47         0.0000000000e+00
 48         0.0000000000e+00
 49         0.0000000000e+00
 50         0.0000000000e+00
 51        -5.1447231759e-02
 52         0.0000000000e+00
 53         0.0000000000e+00
 54         0.0000000000e+00
 55         5.9661390192e-02
 56         0.0000000000e+00
 57         0.0000000000e+00
 58         0.0000000000e+00
 59         0.0000000000e+00
 60         1.0751536484e-01
 61         0.0000000000e+00
 62         0.0000000000e+00
 63        -9.4207869180e-01
 64         0.0000000000e+00
 65         0.0000000000e+00
 66        -9.6280290363e-01
 67         0.0000000000e+00
 68         0.0000000000e+00
 69         0.0000000000e+00
 70        -6.3905066535e-02
 71         0.0000000000e+00
 72         0.0000000000e+00
 73         4.4421841987e-02
 74         0.0000000000e+00
 75         1.1605002082e+00
 76         0.0000000000e+00
 77         0.0000000000e+00
 78        -1.0798450057e+00
 79         0.0000000000e+00
 80        -2.1036558633e-02
 81         0.0000000000e+00
 82         0.0000000000e+00
 83         1.0430586200e-01
 84         5.4794464950e-02
 85         0.0000000000e+00
 86         0.0000000000e+00
 87         0.0000000000e+00
 88         0.0000000000e+00
 89         0.0000000000e+00
 90        -1.0751536484e-01
 91         0.0000000000e+00
 92         0.0000000000e+00
 93         9.4207869180e-01
 94         0.0000000000e+00
 95         0.0000000000e+00
 96         9.6280290363e-01
 97         0.0000000000e+00
 98         0.0000000000e+00
 99         0.0000000000e+00
100         6.3905066535e-02
101         0.0000000000e+00
102         0.0000000000e+00
103         4.4421841987e-02
104         0.0000000000e+00
105        -1.1605002082e+00
106         0.0000000000e+00
107         0.0000000000e+00
108        -1.0798450057e+00
109         0.0000000000e+00
110         2.1036558633e-02
111         0.0000000000e+00
112         0.0000000000e+00
113         1.0430586200e-01
114        -5.4794464950e-02
115         0.0000000000e+00
 Sym= A1
 Ene=         2.8552802495e+00
 Spin= Alpha
 Occup=         0.0000000000e+00
  1         2.0603768883e-02
  2        -6.9950150750e-02
  3         4.5131516429e-01
  4        -3.1842041051e+00
  5        -8.9634653337e+00
  6         0.0000000000e+00
  7         0.0000000000e+00
  8         1.3882457879e-01
  9         0.0000000000e+00
 10         0.0000000000e+00
 11         6.9472641644e-01
 12         0.0000000000e+00
 13         0.0000000000e+00
 14        -2.4602976024e+00
 15         0.0000000000e+00
 16         0.0000000000e+00
 17        -1.2554039152e+00
 18        -3.3789081792e-03
 19         0.0000000000e+00
 20         0.0000000000e+00
 21        -3.3998871817e-02
 22         0.0000000000e+00
 23        -1.0258247071e-01
 24         0.0000000000e+00
 25         0.0000000000e+00
 26         2.0550985223e-01
 27         0.0000000000e+00
 28         1.6783372286e+00
 29         0.0000000000e+00
 30         0.0000000000e+00
 31         2.5194883290e+00
 32         0.0000000000e+00
 33        -1.4937462151e-02
 34         0.0000000000e+00
 35         0.0000000000e+00
 36        -2.4410341989e-04
 37         0.0000000000e+00
 38         0.0000000000e+00
 39         0.0000000000e+00
 40         3.7955721299e-01
 41         0.0000000000e+00
 42         0.0000000000e+00
 43         3.7340837047e-01
 44         0.0000000000e+00
 45         0.0000000000e+00
 46         0.0000000000e+00
 47         3.0835687089e-02
 48         0.0000000000e+00
 49         0.0000000000e+00
 50         1.3361607859e-02
 51         0.0000000000e+00
 52         0.0000000000e+00
 53         0.0000000000e+00
 54        -4.1542649917e-02
 55         0.0000000000e+00
 56        -4.2839990464e-02
 57         1.1808571686e+00
 58         5.1453093184e+00
 59         2.4786550558e-01
 60         0.0000000000e+00
 61         6.2449918493e-02
 62         1.1339117618e-01
 63         0.0000000000e+00
 64         1.2431258346e-01
 65        -1.4634996066e+00
 66         0.0000000000e+00
 67         1.3634933791e+00
 68        -1.8879054076e+00
 69        -5.9576345118e-02
 70         0.0000000000e+00
 71        -6.2950029679e-02
 72        -2.5615426949e-02
 73         0.0000000000e+00
 74         1.0527399713e+00
 75         0.0000000000e+00
 76        -5.3319832038e-01
 77         2.6714662761e-02
 78         0.0000000000e+00
 79         3.0858572588e-02
 80         0.0000000000e+00
 81         6.5276092223e-02
 82         3.6511165221e-02
 83         0.0000000000e+00
 84         0.0000000000e+00
 85         2.1424554900e-02
 86        -4.2839990464e-02
 87         1.1808571686e+00
 88         5.1453093184e+00
 89         2.4786550558e-01
 90         0.0000000000e+00
 91        -6.2449918493e-02
 92         1.1339117618e-01
 93         0.0000000000e+00
 94        -1.2431258346e-01
 95        -1.4634996066e+00
 96         0.0000000000e+00
 97        -1.3634933791e+00
 98        -1.8879054076e+00
 99        -5.9576345118e-02
100         0.0000000000e+00
101         6.2950029679e-02
102        -2.5615426949e-02
103         0.0000000000e+00
104         1.0527399713e+00
105         0.0000000000e+00
106         5.3319832038e-01
107         2.6714662761e-02
108         0.0000000000e+00
109         3.0858572588e-02
110         0.0000000000e+00
111        -6.5276092223e-02
112         3.6511165221e-02
113         0.0000000000e+00
114         0.0000000000e+00
115        -2.1424554900e-02
 Sym= B1
 Ene=         3.0362111337e+00
 Spin= Alpha
 Occup=         0.0000000000e+00
  1         0.0000000000e+00
  2         0.0000000000e+00
  3         0.0000000000e+00
  4         0.0000000000e+00
  5         0.0000000000e+00
  6         7.6912556351e-02
  7         0.0000000000e+00
  8         0.0000000000e+00
  9         8.3245361117e-01
 10         0.0000000000e+00
 11         0.0000000000e+00
 12        -3.0714532080e+00
 13         0.0000000000e+00
 14         0.0000000000e+00
 15        -2.7768885943e-02
 16         0.0000000000e+00
 17         0.0000000000e+00
 18         0.0000000000e+00
 19         1.8712683105e-02
 20         0.0000000000e+00
 21         0.0000000000e+00
 22         0.0000000000e+00
 23         0.0000000000e+00
 24         5.9261774507e-02
 25         0.0000000000e+00
 26         0.0000000000e+00
 27         0.0000000000e+00
 28         0.0000000000e+00
 29        -1.3724408379e+00
 30         0.0000000000e+00
 31         0.0000000000e+00
 32         0.0000000000e+00
 33         0.0000000000e+00
 34        -1.3333756296e-02
 35         0.0000000000e+00
 36         0.0000000000e+00
 37         0.0000000000e+00
 38         1.3450592030e-02
 39         0.0000000000e+00
 40         0.0000000000e+00
 41         6.6842122540e-02
 42         0.0000000000e+00
 43         0.0000000000e+00
 44         0.0000000000e+00
 45         7.4311826046e-02
 46         0.0000000000e+00
 47         0.0000000000e+00
 48         3.4232800913e-03
 49         0.0000000000e+00
 50         0.0000000000e+00
 51         0.0000000000e+00
 52         7.7189146152e-02
 53         0.0000000000e+00
 54         0.0000000000e+00
 55         0.0000000000e+00
 56         0.0000000000e+00
 57         0.0000000000e+00
 58         0.0000000000e+00
 59         0.0000000000e+00
 60        -1.0664858900e-01
 61         0.0000000000e+00
 62         0.0000000000e+00
 63         8.8253580322e-01
 64         0.0000000000e+00
 65         0.0000000000e+00
 66         6.0975859236e-01
 67         0.0000000000e+00
 68         0.0000000000e+00
 69         0.0000000000e+00
 70         2.8035337391e-02
 71         0.0000000000e+00
 72         0.0000000000e+00
 73        -4.0413488729e-02
 74         0.0000000000e+00
 75        -6.6314609909e-01
 76         0.0000000000e+00
 77         0.0000000000e+00
 78         9.5707166858e-01
 79         0.0000000000e+00
 80         3.1840878951e-02
 81         0.0000000000e+00
 82         0.0000000000e+00
 83        -6.4194976742e-02
 84        -9.9265357875e-02
 85         0.0000000000e+00
 86         0.0000000000e+00
 87         0.0000000000e+00
 88         0.0000000000e+00
 89         0.0000000000e+00
 90        -1.0664858900e-01
 91         0.0000000000e+00
 92         0.0000000000e+00
 93         8.8253580322e-01
 94         0.0000000000e+00
 95         0.0000000000e+00
 96         6.0975859236e-01
 97         0.0000000000e+00
 98         0.0000000000e+00
 99         0.0000000000e+00
100         2.8035337391e-02
101         0.0000000000e+00
102         0.0000000000e+00
103         4.0413488729e-02
104         0.0000000000e+00
105        -6.6314609909e-01
106         0.0000000000e+00
107         0.0000000000e+00
108        -9.5707166858e-01
109         0.0000000000e+00
110         3.1840878951e-02
111         0.0000000000e+00
112         0.0000000000e+00
113         6.4194976742e-02
114        -9.9265357875e-02
115         0.0000000000e+00
 Sym= B2
 Ene=         3.1357268010e+00
 Spin= Alpha
 Occup=         0.0000000000e+00
  1         0.0000000000e+00
  2         0.0000000000e+00
  3         0.0000000000e+00
  4         0.0000000000e+00
  5         0.0000000000e+00
  6         0.0000000000e+00
  7         1.0568384596e-01
  8         0.0000000000e+00
  9         0.0000000000e+00
 10         6.1829101016e-01
 11         0.0000000000e+00
 12         0.0000000000e+00
 13        -4.6251736723e+00
 14         0.0000000000e+00
 15         0.0000000000e+00
 16        -2.1231363717e+00
 17         0.0000000000e+00
 18         0.0000000000e+00
 19         0.0000000000e+00
 20         7.4075674000e-02
 21         0.0000000000e+00
 22         0.0000000000e+00
 23         0.0000000000e+00
 24         0.0000000000e+00
 25        -3.4780705813e-01
 26         0.0000000000e+00
 27         0.0000000000e+00
 28         0.0000000000e+00
 29         0.0000000000e+00
 30        -2.3579259229e+00
 31         0.0000000000e+00
 32         0.0000000000e+00
 33         0.0000000000e+00
 34         0.0000000000e+00
 35         6.3121916693e-03
 36         0.0000000000e+00
 37         0.0000000000e+00
 38         0.0000000000e+00
 39         2.1287461875e-02
 40         0.0000000000e+00
 41         0.0000000000e+00
 42        -5.2013552513e-01
 43         0.0000000000e+00
 44         0.0000000000e+00
 45         0.0000000000e+00
 46        -4.6619466458e-02
 47         0.0000000000e+00
 48         0.0000000000e+00
 49        -3.7713278376e-02
 50         0.0000000000e+00
 51         0.0000000000e+00
 52         0.0000000000e+00
 53         3.7027725314e-02
 54         0.0000000000e+00
 55         0.0000000000e+00
 56         4.0820125356e-02
 57        -1.1797126406e+00
 58        -6.4147703830e+00
 59        -2.7029272367e-01
 60         0.0000000000e+00
 61         8.6506204834e-02
 62        -2.1759324699e-02
 63         0.0000000000e+00
 64        -1.4440823118e+00
 65         5.9740651659e-01
 66         0.0000000000e+00
 67        -2.9116526614e+00
 68         1.1351547635e+00
 69        -4.2550384601e-02
 70         0.0000000000e+00
 71         8.9653524382e-02
 72        -2.7526590366e-02
 73         0.0000000000e+00
 74         7.4698101390e-01
 75         0.0000000000e+00
 76         2.4476789981e-01
 77         1.2436770660e+00
 78         0.0000000000e+00
 79        -7.0977704181e-02
 80         0.0000000000e+00
 81         1.2109995659e-02
 82        -8.1535574696e-02
 83         0.0000000000e+00
 84         0.0000000000e+00
 85         3.4497036107e-02
 86        -4.0820125356e-02
 87         1.1797126406e+00
 88         6.4147703830e+00
 89         2.7029272367e-01
 90         0.0000000000e+00
 91         8.6506204834e-02
 92         2.1759324699e-02
 93         0.0000000000e+00
 94        -1.4440823118e+00
 95        -5.9740651659e-01
 96         0.0000000000e+00
 97        -2.9116526614e+00
 98        -1.1351547635e+00
 99         4.2550384601e-02
100         0.0000000000e+00
101         8.9653524382e-02
102         2.7526590366e-02
103         0.0000000000e+00
104        -7.4698101390e-01
105         0.0000000000e+00
106         2.4476789981e-01
107        -1.2436770660e+00
108         0.0000000000e+00
109         7.0977704181e-02
110         0.0000000000e+00
111         1.2109995659e-02
112         8.1535574696e-02
113         0.0000000000e+00
114         0.0000000000e+00
115         3.4497036107e-02
 Sym= B2
 Ene=         3.2937665132e+00
 Spin= Alpha
 Occup=         0.0000000000e+00
  1         0.0000000000e+00
  2         0.0000000000e+00
  3         0.0000000000e+00
  4         0.0000000000e+00
  5         0.0000000000e+00
  6         0.0000000000e+00
  7         6.6709097784e-02
  8         0.0000000000e+00
  9         0.0000000000e+00
 10         1.0391310317e-01
 11         0.0000000000e+00
 12         0.0000000000e+00
 13         6.0949573307e+00
 14         0.0000000000e+00
 15         0.0000000000e+00
 16         2.3670330592e+00
 17         0.0000000000e+00
 18         0.0000000000e+00
 19         0.0000000000e+00
 20        -7.6818983403e-02
 21         0.0000000000e+00
 22         0.0000000000e+00
 23         0.0000000000e+00
 24         0.0000000000e+00
 25         2.6831018077e-01
 26         0.0000000000e+00
 27         0.0000000000e+00
 28         0.0000000000e+00
 29         0.0000000000e+00
 30         2.2056611551e+00
 31         0.0000000000e+00
 32         0.0000000000e+00
 33         0.0000000000e+00
 34         0.0000000000e+00
 35        -6.9901446840e-03
 36         0.0000000000e+00
 37         0.0000000000e+00
 38         0.0000000000e+00
 39         1.1043368090e-02
 40         0.0000000000e+00
 41         0.0000000000e+00
 42         2.7159458533e-01
 43         0.0000000000e+00
 44         0.0000000000e+00
 45         0.0000000000e+00
 46        -4.3331184836e-01
 47         0.0000000000e+00
 48         0.0000000000e+00
 49        -2.4673250948e-02
 50         0.0000000000e+00
 51         0.0000000000e+00
 52         0.0000000000e+00
 53        -4.5056174649e-02
 54         0.0000000000e+00
 55         0.0000000000e+00
 56        -2.5455405860e-02
 57         1.8928497910e+00
 58         5.5767929068e+00
 59         1.0587846500e-01
 60         0.0000000000e+00
 61        -1.0677747930e-01
 62         1.2079267474e-01
 63         0.0000000000e+00
 64         1.6631897210e+00
 65        -1.5567159181e+00
 66         0.0000000000e+00
 67         1.5576202136e+00
 68        -1.7802042760e+00
 69        -4.0958784415e-02
 70         0.0000000000e+00
 71         1.3998038972e-02
 72        -4.1556946928e-02
 73         0.0000000000e+00
 74         5.8553750841e-01
 75         0.0000000000e+00
 76        -1.4206455807e+00
 77        -3.7200734151e-01
 78         0.0000000000e+00
 79         6.9724838858e-03
 80         0.0000000000e+00
 81         4.5392916836e-02
 82         3.9097364678e-02
 83         0.0000000000e+00
 84         0.0000000000e+00
 85        -2.4474438331e-02
 86         2.5455405860e-02
 87        -1.8928497910e+00
 88        -5.5767929068e+00
 89        -1.0587846500e-01
 90         0.0000000000e+00
 91        -1.0677747930e-01
 92        -1.2079267474e-01
 93         0.0000000000e+00
 94         1.6631897210e+00
 95         1.5567159181e+00
 96         0.0000000000e+00
 97         1.5576202136e+00
 98         1.7802042760e+00
 99         4.0958784415e-02
100         0.0000000000e+00
101         1.3998038972e-02
102         4.1556946928e-02
103         0.0000000000e+00
104        -5.8553750841e-01
105         0.0000000000e+00
106        -1.4206455807e+00
107         3.7200734151e-01
108         0.0000000000e+00
109        -6.9724838858e-03
110         0.0000000000e+00
111         4.5392916836e-02
112        -3.9097364678e-02
113         0.0000000000e+00
114         0.0000000000e+00
115        -2.4474438331e-02
 Sym= A1
 Ene=         3.3421009952e+00
 Spin= Alpha
 Occup=         0.0000000000e+00
  1         5.2502991329e-02
  2         2.5869936026e-01
  3        -1.1286202800e-01
  4         2.9356650322e+00
  5         7.8664619378e+00
  6         0.0000000000e+00
  7         0.0000000000e+00
  8        -7.0542155549e-02
  9         0.0000000000e+00
 10         0.0000000000e+00
 11        -9.3907880525e-01
 12         0.0000000000e+00
 13         0.0000000000e+00
 14         5.6321249092e+00
 15         0.0000000000e+00
 16         0.0000000000e+00
 17         2.0382475376e+00
 18        -2.4274224483e-02
 19         0.0000000000e+00
 20         0.0000000000e+00
 21         3.0818037921e-02
 22         0.0000000000e+00
 23        -3.6182622850e-02
 24         0.0000000000e+00
 25         0.0000000000e+00
 26        -1.9304546995e-01
 27         0.0000000000e+00
 28         2.0466039634e+00
 29         0.0000000000e+00
 30         0.0000000000e+00
 31        -1.0641411134e-01
 32         0.0000000000e+00
 33         1.6033512987e-02
 34         0.0000000000e+00
 35         0.0000000000e+00
 36        -1.1906215277e-02
 37         0.0000000000e+00
 38         0.0000000000e+00
 39         0.0000000000e+00
 40        -2.3987981986e-01
 41         0.0000000000e+00
 42         0.0000000000e+00
 43        -2.4925376002e-01
 44         0.0000000000e+00
 45         0.0000000000e+00
 46         0.0000000000e+00
 47        -4.2707244246e-02
 48         0.0000000000e+00
 49         0.0000000000e+00
 50        -8.7706742061e-02
 51         0.0000000000e+00
 52         0.0000000000e+00
 53         0.0000000000e+00
 54         1.3299033929e-03
 55         0.0000000000e+00
 56         4.2957139722e-02
 57        -1.4673537649e+00
 58        -4.5477537054e+00
 59        -1.5564217046e-01
 60         0.0000000000e+00
 61         1.3744706376e-01
 62         3.7952942900e-02
 63         0.0000000000e+00
 64        -1.8057565833e+00
 65         1.7482390273e-01
 66         0.0000000000e+00
 67        -1.7094297802e+00
 68         3.6687791335e-01
 69        -4.2644075736e-02
 70         0.0000000000e+00
 71         5.2469299832e-02
 72         4.9578203259e-02
 73         0.0000000000e+00
 74         9.3718505519e-01
 75         0.0000000000e+00
 76         3.5291260917e-01
 77         5.3894119608e-01
 78         0.0000000000e+00
 79        -4.2508371692e-02
 80         0.0000000000e+00
 81         6.8514870827e-02
 82        -6.7705961625e-03
 83         0.0000000000e+00
 84         0.0000000000e+00
 85         7.9304893719e-02
 86         4.2957139722e-02
 87        -1.4673537649e+00
 88        -4.5477537054e+00
 89        -1.5564217046e-01
 90         0.0000000000e+00
 91        -1.3744706376e-01
 92         3.7952942900e-02
 93         0.0000000000e+00
 94         1.8057565833e+00
 95         1.7482390273e-01
 96         0.0000000000e+00
 97         1.7094297802e+00
 98         3.6687791335e-01
 99        -4.2644075736e-02
100         0.0000000000e+00
101        -5.2469299832e-02
102         4.9578203259e-02
103         0.0000000000e+00
104         9.3718505519e-01
105         0.0000000000e+00
106        -3.5291260917e-01
107         5.3894119608e-01
108         0.0000000000e+00
109        -4.2508371692e-02
110         0.0000000000e+00
111        -6.8514870827e-02
112        -6.7705961625e-03
113         0.0000000000e+00
114         0.0000000000e+00
115        -7.9304893719e-02
 Sym= A1
 Ene=         3.4630699879e+00
 Spin= Alpha
 Occup=         0.0000000000e+00
  1         3.7089130296e-02
  2        -9.9378205916e-02
  3         8.7070467005e-01
  4        -7.1080639283e+00
  5        -7.2158267645e+00
  6         0.0000000000e+00
  7         0.0000000000e+00
  8        -8.5443925591e-02
  9         0.0000000000e+00
 10         0.0000000000e+00
 11        -4.4270698777e-01
 12         0.0000000000e+00
 13         0.0000000000e+00
 14        -3.5395900446e+00
 15         0.0000000000e+00
 16         0.0000000000e+00
 17        -1.6672248576e+00
 18         3.5335233154e-04
 19         0.0000000000e+00
 20         0.0000000000e+00
 21        -5.6247794604e-02
 22         0.0000000000e+00
 23        -3.1958424327e-02
 24         0.0000000000e+00
 25         0.0000000000e+00
 26         1.0440145183e-01
 27         0.0000000000e+00
 28         8.9047316118e-02
 29         0.0000000000e+00
 30         0.0000000000e+00
 31         1.6893802326e+00
 32         0.0000000000e+00
 33         7.0577980399e-03
 34         0.0000000000e+00
 35         0.0000000000e+00
 36        -3.9588487192e-02
 37         0.0000000000e+00
 38         0.0000000000e+00
 39         0.0000000000e+00
 40         2.1953869293e-01
 41         0.0000000000e+00
 42         0.0000000000e+00
 43         9.7866193075e-01
 44         0.0000000000e+00
 45         0.0000000000e+00
 46         0.0000000000e+00
 47         2.7102577110e-02
 48         0.0000000000e+00
 49         0.0000000000e+00
 50         3.1700621866e-02
 51         0.0000000000e+00
 52         0.0000000000e+00
 53         0.0000000000e+00
 54        -2.7592586338e-02
 55         0.0000000000e+00
 56        -2.7400818872e-02
 57         1.7249586698e+00
 58         5.4044625735e+00
 59         5.5557401190e-03
 60         0.0000000000e+00
 61        -9.3120411621e-02
 62         9.5873924662e-02
 63         0.0000000000e+00
 64         1.6546803483e+00
 65        -1.6320167939e+00
 66         0.0000000000e+00
 67         1.6369467261e+00
 68        -1.3466520671e+00
 69         1.7995289819e-02
 70         0.0000000000e+00
 71        -1.8118528027e-02
 72         5.6463162052e-03
 73         0.0000000000e+00
 74         2.1508189473e-01
 75         0.0000000000e+00
 76        -1.2242797728e+00
 77        -8.2065245746e-01
 78         0.0000000000e+00
 79        -8.6768867429e-03
 80         0.0000000000e+00
 81         5.1616916663e-02
 82         5.1987727042e-02
 83         0.0000000000e+00
 84         0.0000000000e+00
 85         2.4547642485e-03
 86        -2.7400818872e-02
 87         1.7249586698e+00
 88         5.4044625735e+00
 89         5.5557401190e-03
 90         0.0000000000e+00
 91         9.3120411621e-02
 92         9.5873924662e-02
 93         0.0000000000e+00
 94        -1.6546803483e+00
 95        -1.6320167939e+00
 96         0.0000000000e+00
 97        -1.6369467261e+00
 98        -1.3466520671e+00
 99         1.7995289819e-02
100         0.0000000000e+00
101         1.8118528027e-02
102         5.6463162052e-03
103         0.0000000000e+00
104         2.1508189473e-01
105         0.0000000000e+00
106         1.2242797728e+00
107        -8.2065245746e-01
108         0.0000000000e+00
109        -8.6768867429e-03
110         0.0000000000e+00
111        -5.1616916663e-02
112         5.1987727042e-02
113         0.0000000000e+00
114         0.0000000000e+00
115        -2.4547642485e-03
 Sym= B2
 Ene=         3.6298257087e+00
 Spin= Alpha
 Occup=         0.0000000000e+00
  1         0.0000000000e+00
  2         0.0000000000e+00
  3         0.0000000000e+00
  4         0.0000000000e+00
  5         0.0000000000e+00
  6         0.0000000000e+00
  7         8.8815037731e-02
  8         0.0000000000e+00
  9         0.0000000000e+00
 10         8.6392383957e-01
 11         0.0000000000e+00
 12         0.0000000000e+00
 13        -3.0866717426e+00
 14         0.0000000000e+00
 15         0.0000000000e+00
 16        -5.9336836241e-01
 17         0.0000000000e+00
 18         0.0000000000e+00
 19         0.0000000000e+00
 20         6.2377982063e-03
 21         0.0000000000e+00
 22         0.0000000000e+00
 23         0.0000000000e+00
 24         0.0000000000e+00
 25        -6.4556151517e-02
 26         0.0000000000e+00
 27         0.0000000000e+00
 28         0.0000000000e+00
 29         0.0000000000e+00
 30        -9.6136960665e-01
 31         0.0000000000e+00
 32         0.0000000000e+00
 33         0.0000000000e+00
 34         0.0000000000e+00
 35        -2.7111660924e-02
 36         0.0000000000e+00
 37         0.0000000000e+00
 38         0.0000000000e+00
 39         5.3789189902e-02
 40         0.0000000000e+00
 41         0.0000000000e+00
 42         3.5912476197e-01
 43         0.0000000000e+00
 44         0.0000000000e+00
 45         0.0000000000e+00
 46        -4.7643000695e-01
 47         0.0000000000e+00
 48         0.0000000000e+00
 49         4.4802720165e-02
 50         0.0000000000e+00
 51         0.0000000000e+00
 52         0.0000000000e+00
 53         3.8095794512e-02
 54         0.0000000000e+00
 55         0.0000000000e+00
 56         1.3587431648e-02
 57        -9.7372142601e-01
 58        -8.7681069759e-01
 59         6.7936496315e-02
 60         0.0000000000e+00
 61         1.0969407613e-02
 62        -5.0274948788e-02
 63         0.0000000000e+00
 64        -1.5275151269e-01
 65         5.9626006903e-01
 66         0.0000000000e+00
 67         2.3916592549e-01
 68         5.6945999525e-01
 69         2.1666479412e-03
 70         0.0000000000e+00
 71         2.3592390165e-02
 72         8.5736440598e-02
 73         0.0000000000e+00
 74        -3.9138620343e-01
 75         0.0000000000e+00
 76         2.6188359863e-01
 77        -8.4146675690e-01
 78         0.0000000000e+00
 79         4.3853077421e-02
 80         0.0000000000e+00
 81        -5.5618127996e-02
 82        -1.9838568949e-02
 83         0.0000000000e+00
 84         0.0000000000e+00
 85        -7.5447402105e-03
 86        -1.3587431648e-02
 87         9.7372142601e-01
 88         8.7681069759e-01
 89        -6.7936496315e-02
 90         0.0000000000e+00
 91         1.0969407613e-02
 92         5.0274948788e-02
 93         0.0000000000e+00
 94        -1.5275151269e-01
 95        -5.9626006903e-01
 96         0.0000000000e+00
 97         2.3916592549e-01
 98        -5.6945999525e-01
 99        -2.1666479412e-03
100         0.0000000000e+00
101         2.3592390165e-02
102        -8.5736440598e-02
103         0.0000000000e+00
104         3.9138620343e-01
105         0.0000000000e+00
106         2.6188359863e-01
107         8.4146675690e-01
108         0.0000000000e+00
109        -4.3853077421e-02
110         0.0000000000e+00
111        -5.5618127996e-02
112         1.9838568949e-02
113         0.0000000000e+00
114         0.0000000000e+00
115        -7.5447402105e-03
 Sym= A1
 Ene=         3.8272941800e+00
 Spin= Alpha
 Occup=         0.0000000000e+00
  1         3.0397542305e-01
  2         6.6916411277e-01
  3         2.2152815648e+00
  4        -6.6023195255e+00
  5        -3.6748295462e+00
  6         0.0000000000e+00
  7         0.0000000000e+00
  8         1.9596150263e-03
  9         0.0000000000e+00
 10         0.0000000000e+00
 11        -3.3555224212e-01
 12         0.0000000000e+00
 13         0.0000000000e+00
 14        -1.8151749058e+00
 15         0.0000000000e+00
 16         0.0000000000e+00
 17        -9.1246266579e-01
 18        -3.5588574362e-03
 19         0.0000000000e+00
 20         0.0000000000e+00
 21        -1.1138105013e-02
 22         0.0000000000e+00
 23         7.2378609216e-02
 24         0.0000000000e+00
 25         0.0000000000e+00
 26        -9.0509664724e-02
 27         0.0000000000e+00
 28         1.6982526730e-01
 29         0.0000000000e+00
 30         0.0000000000e+00
 31         6.1124940880e-01
 32         0.0000000000e+00
 33         1.3579983040e-02
 34         0.0000000000e+00
 35         0.0000000000e+00
 36         9.5187784092e-02
 37         0.0000000000e+00
 38         0.0000000000e+00
 39         0.0000000000e+00
 40         1.0116582291e-01
 41         0.0000000000e+00
 42         0.0000000000e+00
 43        -6.4961515790e-01
 44         0.0000000000e+00
 45         0.0000000000e+00
 46         0.0000000000e+00
 47        -1.0914660508e-04
 48         0.0000000000e+00
 49         0.0000000000e+00
 50        -4.8176965031e-03
 51         0.0000000000e+00
 52         0.0000000000e+00
 53         0.0000000000e+00
 54        -8.2182963069e-03
 55         0.0000000000e+00
 56         4.7224781792e-02
 57        -6.1892612061e-02
 58         4.1298800986e+00
 59        -2.1834539356e-01
 60         0.0000000000e+00
 61        -1.1756761722e-01
 62         1.0052570676e-01
 63         0.0000000000e+00
 64         8.5673870917e-01
 65        -8.2111397289e-01
 66         0.0000000000e+00
 67         1.3316867003e+00
 68        -1.1785484906e+00
 69         8.7865667827e-03
 70         0.0000000000e+00
 71        -3.5929465528e-03
 72        -1.2943779341e-02
 73         0.0000000000e+00
 74         8.6683764855e-02
 75         0.0000000000e+00
 76        -8.1121993072e-01
 77        -3.7904297401e-01
 78         0.0000000000e+00
 79         4.4671527969e-02
 80         0.0000000000e+00
 81         9.7397776354e-02
 82         1.1316177317e-01
 83         0.0000000000e+00
 84         0.0000000000e+00
 85        -8.2153681947e-02
 86         4.7224781792e-02
 87        -6.1892612061e-02
 88         4.1298800986e+00
 89        -2.1834539356e-01
 90         0.0000000000e+00
 91         1.1756761722e-01
 92         1.0052570676e-01
 93         0.0000000000e+00
 94        -8.5673870917e-01
 95        -8.2111397289e-01
 96         0.0000000000e+00
 97        -1.3316867003e+00
 98        -1.1785484906e+00
 99         8.7865667827e-03
100         0.0000000000e+00
101         3.5929465528e-03
102        -1.2943779341e-02
103         0.0000000000e+00
104         8.6683764855e-02
105         0.0000000000e+00
106         8.1121993072e-01
107        -3.7904297401e-01
108         0.0000000000e+00
109         4.4671527969e-02
110         0.0000000000e+00
111        -9.7397776354e-02
112         1.1316177317e-01
113         0.0000000000e+00
114         0.0000000000e+00
115         8.2153681947e-02
 Sym= B1
 Ene=         4.0008856026e+00
 Spin= Alpha
 Occup=         0.0000000000e+00
  1         0.0000000000e+00
  2         0.0000000000e+00
  3         0.0000000000e+00
  4         0.0000000000e+00
  5         0.0000000000e+00
  6         7.3014072055e-03
  7         0.0000000000e+00
  8         0.0000000000e+00
  9        -1.0662489062e-02
 10         0.0000000000e+00
 11         0.0000000000e+00
 12         3.5248378238e-01
 13         0.0000000000e+00
 14         0.0000000000e+00
 15         2.4340718061e-01
 16         0.0000000000e+00
 17         0.0000000000e+00
 18         0.0000000000e+00
 19         6.1038845403e-03
 20         0.0000000000e+00
 21         0.0000000000e+00
 22         0.0000000000e+00
 23         0.0000000000e+00
 24        -3.9444496937e-01
 25         0.0000000000e+00
 26         0.0000000000e+00
 27         0.0000000000e+00
 28         0.0000000000e+00
 29         2.8989163292e-01
 30         0.0000000000e+00
 31         0.0000000000e+00
 32         0.0000000000e+00
 33         0.0000000000e+00
 34         5.9231298843e-02
 35         0.0000000000e+00
 36         0.0000000000e+00
 37         0.0000000000e+00
 38         5.8287837536e-02
 39         0.0000000000e+00
 40         0.0000000000e+00
 41        -7.7143084337e-01
 42         0.0000000000e+00
 43         0.0000000000e+00
 44         0.0000000000e+00
 45        -9.0395920999e-01
 46         0.0000000000e+00
 47         0.0000000000e+00
 48        -6.8989311756e-04
 49         0.0000000000e+00
 50         0.0000000000e+00
 51         0.0000000000e+00
 52        -4.3830173731e-02
 53         0.0000000000e+00
 54         0.0000000000e+00
 55         0.0000000000e+00
 56         0.0000000000e+00
 57         0.0000000000e+00
 58         0.0000000000e+00
 59         0.0000000000e+00
 60         1.8673221204e-02
 61         0.0000000000e+00
 62         0.0000000000e+00
 63        -1.6269397764e-01
 64         0.0000000000e+00
 65         0.0000000000e+00
 66        -2.4843745622e-01
 67         0.0000000000e+00
 68         0.0000000000e+00
 69         0.0000000000e+00
 70        -1.1632994900e-02
 71         0.0000000000e+00
 72         0.0000000000e+00
 73        -6.7390842250e-02
 74         0.0000000000e+00
 75         4.3310963735e-01
 76         0.0000000000e+00
 77         0.0000000000e+00
 78         1.6802834273e-01
 79         0.0000000000e+00
 80         1.3454504445e-02
 81         0.0000000000e+00
 82         0.0000000000e+00
 83         6.8062878553e-02
 84         6.5481685805e-02
 85         0.0000000000e+00
 86         0.0000000000e+00
 87         0.0000000000e+00
 88         0.0000000000e+00
 89         0.0000000000e+00
 90         1.8673221204e-02
 91         0.0000000000e+00
 92         0.0000000000e+00
 93        -1.6269397764e-01
 94         0.0000000000e+00
 95         0.0000000000e+00
 96        -2.4843745622e-01
 97         0.0000000000e+00
 98         0.0000000000e+00
 99         0.0000000000e+00
100        -1.1632994900e-02
101         0.0000000000e+00
102         0.0000000000e+00
103         6.7390842250e-02
104         0.0000000000e+00
105         4.3310963735e-01
106         0.0000000000e+00
107         0.0000000000e+00
108        -1.6802834273e-01
109         0.0000000000e+00
110         1.3454504445e-02
111         0.0000000000e+00
112         0.0000000000e+00
113        -6.8062878553e-02
114         6.5481685805e-02
115         0.0000000000e+00
 Sym= A2
 Ene=         4.1268886766e+00
 Spin= Alpha
 Occup=         0.0000000000e+00
  1         0.0000000000e+00
  2         0.0000000000e+00
  3         0.0000000000e+00
  4         0.0000000000e+00
  5         0.0000000000e+00
  6         0.0000000000e+00
  7         0.0000000000e+00
  8         0.0000000000e+00
  9         0.0000000000e+00
 10         0.0000000000e+00
 11         0.0000000000e+00
 12         0.0000000000e+00
 13         0.0000000000e+00
 14         0.0000000000e+00
 15         0.0000000000e+00
 16         0.0000000000e+00
 17         0.0000000000e+00
 18         0.0000000000e+00
 19         0.0000000000e+00
 20         0.0000000000e+00
 21         0.0000000000e+00
 22         2.4115019111e-03
 23         0.0000000000e+00
 24         0.0000000000e+00
 25         0.0000000000e+00
 26         0.0000000000e+00
 27         7.5913256427e-01
 28         0.0000000000e+00
 29         0.0000000000e+00
 30         0.0000000000e+00
 31         0.0000000000e+00
 32        -1.8174968196e+00
 33         0.0000000000e+00
 34         0.0000000000e+00
 35         0.0000000000e+00
 36         0.0000000000e+00
 37         6.8098082481e-02
 38         0.0000000000e+00
 39         0.0000000000e+00
 40         0.0000000000e+00
 41         0.0000000000e+00
 42         0.0000000000e+00
 43         0.0000000000e+00
 44        -1.2576044126e+00
 45         0.0000000000e+00
 46         0.0000000000e+00
 47         0.0000000000e+00
 48         0.0000000000e+00
 49         0.0000000000e+00
 50         0.0000000000e+00
 51        -6.7343263050e-02
 52         0.0000000000e+00
 53         0.0000000000e+00
 54         0.0000000000e+00
 55         6.4889777878e-02
 56         0.0000000000e+00
 57         0.0000000000e+00
 58         0.0000000000e+00
 59         0.0000000000e+00
 60         6.2001242330e-02
 61         0.0000000000e+00
 62         0.0000000000e+00
 63        -7.8481844361e-01
 64         0.0000000000e+00
 65         0.0000000000e+00
 66        -5.7007068946e-01
 67         0.0000000000e+00
 68         0.0000000000e+00
 69         0.0000000000e+00
 70         7.6900314295e-02
 71         0.0000000000e+00
 72         0.0000000000e+00
 73        -7.7373673412e-02
 74         0.0000000000e+00
 75         3.4602848638e-01
 76         0.0000000000e+00
 77         0.0000000000e+00
 78        -3.7307456877e-01
 79         0.0000000000e+00
 80        -9.4275515546e-02
 81         0.0000000000e+00
 82         0.0000000000e+00
 83         1.6977099056e-01
 84         1.3170223209e-01
 85         0.0000000000e+00
 86         0.0000000000e+00
 87         0.0000000000e+00
 88         0.0000000000e+00
 89         0.0000000000e+00
 90        -6.2001242330e-02
 91         0.0000000000e+00
 92         0.0000000000e+00
 93         7.8481844361e-01
 94         0.0000000000e+00
 95         0.0000000000e+00
 96         5.7007068946e-01
 97         0.0000000000e+00
 98         0.0000000000e+00
 99         0.0000000000e+00
100        -7.6900314295e-02
101         0.0000000000e+00
102         0.0000000000e+00
103        -7.7373673412e-02
104         0.0000000000e+00
105        -3.4602848638e-01
106         0.0000000000e+00
107         0.0000000000e+00
108        -3.7307456877e-01
109         0.0000000000e+00
110         9.4275515546e-02
111         0.0000000000e+00
112         0.0000000000e+00
113         1.6977099056e-01
114        -1.3170223209e-01
115         0.0000000000e+00
 Sym= B1
 Ene=         4.1903200335e+00
 Spin= Alpha
 Occup=         0.0000000000e+00
  1         0.0000000000e+00
  2         0.0000000000e+00
  3         0.0000000000e+00
  4         0.0000000000e+00
  5         0.0000000000e+00
  6         7.1301950653e-03
  7         0.0000000000e+00
  8         0.0000000000e+00
  9         2.6992225536e-01
 10         0.0000000000e+00
 11         0.0000000000e+00
 12        -1.7953358559e+00
 13         0.0000000000e+00
 14         0.0000000000e+00
 15        -6.2459255501e-01
 16         0.0000000000e+00
 17         0.0000000000e+00
 18         0.0000000000e+00
 19        -8.2477908933e-03
 20         0.0000000000e+00
 21         0.0000000000e+00
 22         0.0000000000e+00
 23         0.0000000000e+00
 24         7.3708602780e-01
 25         0.0000000000e+00
 26         0.0000000000e+00
 27         0.0000000000e+00
 28         0.0000000000e+00
 29        -1.8868364134e+00
 30         0.0000000000e+00
 31         0.0000000000e+00
 32         0.0000000000e+00
 33         0.0000000000e+00
 34         7.2665227985e-02
 35         0.0000000000e+00
 36         0.0000000000e+00
 37         0.0000000000e+00
 38        -3.3025157974e-02
 39         0.0000000000e+00
 40         0.0000000000e+00
 41        -1.0191681521e+00
 42         0.0000000000e+00
 43         0.0000000000e+00
 44         0.0000000000e+00
 45         7.0362522212e-01
 46         0.0000000000e+00
 47         0.0000000000e+00
 48         2.2557517505e-03
 49         0.0000000000e+00
 50         0.0000000000e+00
 51         0.0000000000e+00
 52         8.8547104530e-02
 53         0.0000000000e+00
 54         0.0000000000e+00
 55         0.0000000000e+00
 56         0.0000000000e+00
 57         0.0000000000e+00
 58         0.0000000000e+00
 59         0.0000000000e+00
 60        -6.8035523788e-02
 61         0.0000000000e+00
 62         0.0000000000e+00
 63         8.3040999202e-01
 64         0.0000000000e+00
 65         0.0000000000e+00
 66         7.3489317333e-01
 67         0.0000000000e+00
 68         0.0000000000e+00
 69         0.0000000000e+00
 70        -4.8639164207e-02
 71         0.0000000000e+00
 72         0.0000000000e+00
 73         3.9453222331e-02
 74         0.0000000000e+00
 75        -1.7763122098e-01
 76         0.0000000000e+00
 77         0.0000000000e+00
 78         7.5566936345e-01
 79         0.0000000000e+00
 80         7.8843910992e-03
 81         0.0000000000e+00
 82         0.0000000000e+00
 83        -1.4602991994e-01
 84        -1.2236856253e-01
 85         0.0000000000e+00
 86         0.0000000000e+00
 87         0.0000000000e+00
 88         0.0000000000e+00
 89         0.0000000000e+00
 90        -6.8035523788e-02
 91         0.0000000000e+00
 92         0.0000000000e+00
 93         8.3040999202e-01
 94         0.0000000000e+00
 95         0.0000000000e+00
 96         7.3489317333e-01
 97         0.0000000000e+00
 98         0.0000000000e+00
 99         0.0000000000e+00
100        -4.8639164207e-02
101         0.0000000000e+00
102         0.0000000000e+00
103        -3.9453222331e-02
104         0.0000000000e+00
105        -1.7763122098e-01
106         0.0000000000e+00
107         0.0000000000e+00
108        -7.5566936345e-01
109         0.0000000000e+00
110         7.8843910992e-03
111         0.0000000000e+00
112         0.0000000000e+00
113         1.4602991994e-01
114        -1.2236856253e-01
115         0.0000000000e+00
 Sym= A1
 Ene=         4.2126654590e+00
 Spin= Alpha
 Occup=         0.0000000000e+00
  1         4.7830791171e-03
  2         1.9052252601e-02
  3         2.1385959513e-01
  4        -9.4782725624e-01
  5        -2.1081194277e-01
  6         0.0000000000e+00
  7         0.0000000000e+00
  8         2.1148463301e-03
  9         0.0000000000e+00
 10         0.0000000000e+00
 11         1.0573017818e-01
 12         0.0000000000e+00
 13         0.0000000000e+00
 14        -1.6568262462e+00
 15         0.0000000000e+00
 16         0.0000000000e+00
 17        -5.8657038114e-01
 18         8.8463260221e-03
 19         0.0000000000e+00
 20         0.0000000000e+00
 21         7.1335032229e-03
 22         0.0000000000e+00
 23         5.3064873977e-01
 24         0.0000000000e+00
 25         0.0000000000e+00
 26         2.8336142936e-01
 27         0.0000000000e+00
 28        -2.0968570993e+00
 29         0.0000000000e+00
 30         0.0000000000e+00
 31        -8.0312137961e-01
 32         0.0000000000e+00
 33         8.6602158407e-02
 34         0.0000000000e+00
 35         0.0000000000e+00
 36         1.3497478000e-02
 37         0.0000000000e+00
 38         0.0000000000e+00
 39         0.0000000000e+00
 40        -1.2609808998e+00
 41         0.0000000000e+00
 42         0.0000000000e+00
 43        -3.0727763751e-02
 44         0.0000000000e+00
 45         0.0000000000e+00
 46         0.0000000000e+00
 47        -2.6368349288e-04
 48         0.0000000000e+00
 49         0.0000000000e+00
 50         4.1146524888e-02
 51         0.0000000000e+00
 52         0.0000000000e+00
 53         0.0000000000e+00
 54         3.4641573573e-02
 55         0.0000000000e+00
 56         6.2131317391e-02
 57         1.7926506999e-02
 58         5.9424542486e-01
 59        -1.3712441893e-01
 60         0.0000000000e+00
 61        -1.3364484084e-01
 62         9.3735177356e-03
 63         0.0000000000e+00
 64         1.0220141636e+00
 65         4.3336507951e-01
 66         0.0000000000e+00
 67         3.2560223759e-01
 68         5.1860637650e-01
 69        -7.9999053047e-02
 70         0.0000000000e+00
 71         6.5282029327e-03
 72        -2.0869992556e-02
 73         0.0000000000e+00
 74        -3.1281604420e-01
 75         0.0000000000e+00
 76         1.6038137917e-01
 77        -4.9339396579e-01
 78         0.0000000000e+00
 79         9.2518563716e-02
 80         0.0000000000e+00
 81        -1.3676571160e-01
 82         5.4727403005e-02
 83         0.0000000000e+00
 84         0.0000000000e+00
 85        -1.2423397096e-01
 86         6.2131317391e-02
 87         1.7926506999e-02
 88         5.9424542486e-01
 89        -1.3712441893e-01
 90         0.0000000000e+00
 91         1.3364484084e-01
 92         9.3735177356e-03
 93         0.0000000000e+00
 94        -1.0220141636e+00
 95         4.3336507951e-01
 96         0.0000000000e+00
 97        -3.2560223759e-01
 98         5.1860637650e-01
 99        -7.9999053047e-02
100         0.0000000000e+00
101        -6.5282029327e-03
102        -2.0869992556e-02
103         0.0000000000e+00
104        -3.1281604420e-01
105         0.0000000000e+00
106        -1.6038137917e-01
107        -4.9339396579e-01
108         0.0000000000e+00
109         9.2518563716e-02
110         0.0000000000e+00
111         1.3676571160e-01
112         5.4727403005e-02
113         0.0000000000e+00
114         0.0000000000e+00
115         1.2423397096e-01
 Sym= B2
 Ene=         4.4355301413e+00
 Spin= Alpha
 Occup=         0.0000000000e+00
  1         0.0000000000e+00
  2         0.0000000000e+00
  3         0.0000000000e+00
  4         0.0000000000e+00
  5         0.0000000000e+00
  6         0.0000000000e+00
  7         1.1646341288e-01
  8         0.0000000000e+00
  9         0.0000000000e+00
 10         1.2428302230e+00
 11         0.0000000000e+00
 12         0.0000000000e+00
 13        -3.8479811058e+00
 14         0.0000000000e+00
 15         0.0000000000e+00
 16        -1.0156519291e+00
 17         0.0000000000e+00
 18         0.0000000000e+00
 19         0.0000000000e+00
 20         1.7984894382e-02
 21         0.0000000000e+00
 22         0.0000000000e+00
 23         0.0000000000e+00
 24         0.0000000000e+00
 25         2.3872623510e-01
 26         0.0000000000e+00
 27         0.0000000000e+00
 28         0.0000000000e+00
 29         0.0000000000e+00
 30        -2.4162622541e+00
 31         0.0000000000e+00
 32         0.0000000000e+00
 33         0.0000000000e+00
 34         0.0000000000e+00
 35         1.7137692532e-02
 36         0.0000000000e+00
 37         0.0000000000e+00
 38         0.0000000000e+00
 39        -8.0919158208e-02
 40         0.0000000000e+00
 41         0.0000000000e+00
 42        -2.3340702514e-01
 43         0.0000000000e+00
 44         0.0000000000e+00
 45         0.0000000000e+00
 46         1.3553236068e+00
 47         0.0000000000e+00
 48         0.0000000000e+00
 49         4.4975080722e-02
 50         0.0000000000e+00
 51         0.0000000000e+00
 52         0.0000000000e+00
 53         8.4736710592e-02
 54         0.0000000000e+00
 55         0.0000000000e+00
 56         8.9503528731e-02
 57        -2.7546746350e+00
 58         1.2195998644e-01
 59        -1.1774215134e-01
 60         0.0000000000e+00
 61        -9.3189627083e-02
 62         2.6223893362e-02
 63         0.0000000000e+00
 64        -1.6115086192e-01
 65         7.6780817076e-01
 66         0.0000000000e+00
 67         7.7907316819e-01
 68         6.5745814184e-02
 69         8.2128187408e-03
 70         0.0000000000e+00
 71         1.4254601362e-01
 72         9.2090853512e-02
 73         0.0000000000e+00
 74        -5.3384397972e-01
 75         0.0000000000e+00
 76        -4.0947424984e-01
 77        -7.3514890291e-01
 78         0.0000000000e+00
 79         1.7024747346e-02
 80         0.0000000000e+00
 81        -7.5662038463e-02
 82         4.4680795772e-02
 83         0.0000000000e+00
 84         0.0000000000e+00
 85         9.6743440954e-03
 86        -8.9503528731e-02
 87         2.7546746350e+00
 88        -1.2195998644e-01
 89         1.1774215134e-01
 90         0.0000000000e+00
 91        -9.3189627083e-02
 92        -2.6223893362e-02
 93         0.0000000000e+00
 94        -1.6115086192e-01
 95        -7.6780817076e-01
 96         0.0000000000e+00
 97         7.7907316819e-01
 98        -6.5745814184e-02
 99        -8.2128187408e-03
100         0.0000000000e+00
101         1.4254601362e-01
102        -9.2090853512e-02
103         0.0000000000e+00
104         5.3384397972e-01
105         0.0000000000e+00
106        -4.0947424984e-01
107         7.3514890291e-01
108         0.0000000000e+00
109        -1.7024747346e-02
110         0.0000000000e+00
111        -7.5662038463e-02
112        -4.4680795772e-02
113         0.0000000000e+00
114         0.0000000000e+00
115         9.6743440954e-03
 Sym= A1
 Ene=         4.4972662764e+00
 Spin= Alpha
 Occup=         0.0000000000e+00
  1         2.1113730404e-01
  2         4.3313403951e-01
  3         9.9868508932e-01
  4         1.0148975457e+00
  5        -2.4688742477e+00
  6         0.0000000000e+00
  7         0.0000000000e+00
  8         7.2574229565e-02
  9         0.0000000000e+00
 10         0.0000000000e+00
 11         5.5773904568e-01
 12         0.0000000000e+00
 13         0.0000000000e+00
 14        -4.9805717615e-01
 15         0.0000000000e+00
 16         0.0000000000e+00
 17        -8.8649431276e-01
 18        -2.0501130312e-02
 19         0.0000000000e+00
 20         0.0000000000e+00
 21         1.8284230022e-02
 22         0.0000000000e+00
 23         6.4906932262e-01
 24         0.0000000000e+00
 25         0.0000000000e+00
 26        -8.7760962048e-01
 27         0.0000000000e+00
 28        -3.3698724490e-01
 29         0.0000000000e+00
 30         0.0000000000e+00
 31         1.5301909268e+00
 32         0.0000000000e+00
 33        -1.4969251978e-02
 34         0.0000000000e+00
 35         0.0000000000e+00
 36        -5.9659744086e-02
 37         0.0000000000e+00
 38         0.0000000000e+00
 39         0.0000000000e+00
 40         3.0461360654e-01
 41         0.0000000000e+00
 42         0.0000000000e+00
 43         8.5663863087e-01
 44         0.0000000000e+00
 45         0.0000000000e+00
 46         0.0000000000e+00
 47         3.9282774929e-02
 48         0.0000000000e+00
 49         0.0000000000e+00
 50         5.8549488623e-02
 51         0.0000000000e+00
 52         0.0000000000e+00
 53         0.0000000000e+00
 54        -3.1145399569e-02
 55         0.0000000000e+00
 56        -1.3405692652e-01
 57         1.1602954346e+00
 58         3.2917978976e-01
 59         1.4727391833e-01
 60         0.0000000000e+00
 61         1.6160484322e-01
 62        -1.0570839782e-01
 63         0.0000000000e+00
 64        -4.1575063573e-01
 65         6.7448076278e-02
 66         0.0000000000e+00
 67        -8.4087866086e-02
 68         1.1045691439e-01
 69         1.5276347508e-02
 70         0.0000000000e+00
 71        -9.6080904655e-02
 72        -7.7610044016e-02
 73         0.0000000000e+00
 74         1.3645616900e-01
 75         0.0000000000e+00
 76         5.9201953669e-01
 77         3.7675214214e-01
 78         0.0000000000e+00
 79        -6.0594770970e-02
 80         0.0000000000e+00
 81        -2.3844705471e-02
 82        -8.7342904014e-03
 83         0.0000000000e+00
 84         0.0000000000e+00
 85        -2.5634480369e-02
 86        -1.3405692652e-01
 87         1.1602954346e+00
 88         3.2917978976e-01
 89         1.4727391833e-01
 90         0.0000000000e+00
 91        -1.6160484322e-01
 92        -1.0570839782e-01
 93         0.0000000000e+00
 94         4.1575063573e-01
 95         6.7448076278e-02
 96         0.0000000000e+00
 97         8.4087866086e-02
 98         1.1045691439e-01
 99         1.5276347508e-02
100         0.0000000000e+00
101         9.6080904655e-02
102        -7.7610044016e-02
103         0.0000000000e+00
104         1.3645616900e-01
105         0.0000000000e+00
106        -5.9201953669e-01
107         3.7675214214e-01
108         0.0000000000e+00
109        -6.0594770970e-02
110         0.0000000000e+00
111         2.3844705471e-02
112        -8.7342904014e-03
113         0.0000000000e+00
114         0.0000000000e+00
115         2.5634480369e-02
 Sym= A1
 Ene=         4.7122425238e+00
 Spin= Alpha
 Occup=         0.0000000000e+00
  1         1.7270361035e-01
  2         3.6662934803e-01
  3         1.3332995629e+00
  4        -2.2393808220e+00
  5         1.0289011939e-01
  6         0.0000000000e+00
  7         0.0000000000e+00
  8         7.6544873988e-02
  9         0.0000000000e+00
 10         0.0000000000e+00
 11         4.7463724805e-01
 12         0.0000000000e+00
 13         0.0000000000e+00
 14        -2.9481058361e+00
 15         0.0000000000e+00
 16         0.0000000000e+00
 17        -1.5539975167e-01
 18         2.2856608048e-02
 19         0.0000000000e+00
 20         0.0000000000e+00
 21        -1.5316805000e-02
 22         0.0000000000e+00
 23        -8.3664083018e-01
 24         0.0000000000e+00
 25         0.0000000000e+00
 26        -8.1330875891e-02
 27         0.0000000000e+00
 28        -1.3140391784e+00
 29         0.0000000000e+00
 30         0.0000000000e+00
 31        -1.1938383641e-01
 32         0.0000000000e+00
 33         4.2907934806e-02
 34         0.0000000000e+00
 35         0.0000000000e+00
 36        -6.9638120468e-03
 37         0.0000000000e+00
 38         0.0000000000e+00
 39         0.0000000000e+00
 40        -5.9140634608e-01
 41         0.0000000000e+00
 42         0.0000000000e+00
 43         5.9684646529e-01
 44         0.0000000000e+00
 45         0.0000000000e+00
 46         0.0000000000e+00
 47         2.4502074167e-02
 48         0.0000000000e+00
 49         0.0000000000e+00
 50         2.3712373234e-02
 51         0.0000000000e+00
 52         0.0000000000e+00
 53         0.0000000000e+00
 54        -1.6920182686e-02
 55         0.0000000000e+00
 56         2.6544113354e-02
 57         1.2215320652e+00
 58         2.3885784152e-02
 59        -9.0573296536e-02
 60         0.0000000000e+00
 61        -8.8669979753e-02
 62        -5.4749864607e-02
 63         0.0000000000e+00
 64         1.3290841022e+00
 65         3.8499173222e-01
 66         0.0000000000e+00
 67        -1.8373774975e-03
 68         4.3949339979e-01
 69         7.1205313812e-02
 70         0.0000000000e+00
 71        -1.3463341544e-01
 72         1.0024979686e-02
 73         0.0000000000e+00
 74        -7.2040244339e-01
 75         0.0000000000e+00
 76         3.8322036836e-01
 77        -4.8818739276e-01
 78         0.0000000000e+00
 79         6.8227158619e-02
 80         0.0000000000e+00
 81         9.4029756564e-02
 82         9.0702365859e-02
 83         0.0000000000e+00
 84         0.0000000000e+00
 85        -2.2276431773e-02
 86         2.6544113354e-02
 87         1.2215320652e+00
 88         2.3885784152e-02
 89        -9.0573296536e-02
 90         0.0000000000e+00
 91         8.8669979753e-02
 92        -5.4749864607e-02
 93         0.0000000000e+00
 94        -1.3290841022e+00
 95         3.8499173222e-01
 96         0.0000000000e+00
 97         1.8373774975e-03
 98         4.3949339979e-01
 99         7.1205313812e-02
100         0.0000000000e+00
101         1.3463341544e-01
102         1.0024979686e-02
103         0.0000000000e+00
104        -7.2040244339e-01
105         0.0000000000e+00
106        -3.8322036836e-01
107        -4.8818739276e-01
108         0.0000000000e+00
109         6.8227158619e-02
110         0.0000000000e+00
111        -9.4029756564e-02
112         9.0702365859e-02
113         0.0000000000e+00
114         0.0000000000e+00
115         2.2276431773e-02
 Sym= B1
 Ene=         4.7512648851e+00
 Spin= Alpha
 Occup=         0.0000000000e+00
  1         0.0000000000e+00
  2         0.0000000000e+00
  3         0.0000000000e+00
  4         0.0000000000e+00
  5         0.0000000000e+00
  6         5.4442795287e-02
  7         0.0000000000e+00
  8         0.0000000000e+00
  9         5.2316584429e-01
 10         0.0000000000e+00
 11         0.0000000000e+00
 12        -2.8771323838e+00
 13         0.0000000000e+00
 14         0.0000000000e+00
 15        -2.8571494960e-01
 16         0.0000000000e+00
 17         0.0000000000e+00
 18         0.0000000000e+00
 19         3.7725347110e-02
 20         0.0000000000e+00
 21         0.0000000000e+00
 22         0.0000000000e+00
 23         0.0000000000e+00
 24        -9.0190807684e-01
 25         0.0000000000e+00
 26         0.0000000000e+00
 27         0.0000000000e+00
 28         0.0000000000e+00
 29        -1.0662602064e+00
 30         0.0000000000e+00
 31         0.0000000000e+00
 32         0.0000000000e+00
 33         0.0000000000e+00
 34         1.5947112623e-02
 35         0.0000000000e+00
 36         0.0000000000e+00
 37         0.0000000000e+00
 38        -7.8971213135e-02
 39         0.0000000000e+00
 40         0.0000000000e+00
 41        -4.0392275033e-01
 42         0.0000000000e+00
 43         0.0000000000e+00
 44         0.0000000000e+00
 45         1.3751444005e+00
 46         0.0000000000e+00
 47         0.0000000000e+00
 48         4.3668239592e-04
 49         0.0000000000e+00
 50         0.0000000000e+00
 51         0.0000000000e+00
 52         3.1549079906e-02
 53         0.0000000000e+00
 54         0.0000000000e+00
 55         0.0000000000e+00
 56         0.0000000000e+00
 57         0.0000000000e+00
 58         0.0000000000e+00
 59         0.0000000000e+00
 60        -1.0788911465e-01
 61         0.0000000000e+00
 62         0.0000000000e+00
 63         1.3798142233e+00
 64         0.0000000000e+00
 65         0.0000000000e+00
 66         5.4435293631e-01
 67         0.0000000000e+00
 68         0.0000000000e+00
 69         0.0000000000e+00
 70         2.5308937305e-02
 71         0.0000000000e+00
 72         0.0000000000e+00
 73        -4.3979623100e-02
 74         0.0000000000e+00
 75        -8.0712826085e-01
 76         0.0000000000e+00
 77         0.0000000000e+00
 78         9.6896944464e-01
 79         0.0000000000e+00
 80         1.7549243353e-02
 81         0.0000000000e+00
 82         0.0000000000e+00
 83        -1.1965101414e-01
 84         2.4466276600e-02
 85         0.0000000000e+00
 86         0.0000000000e+00
 87         0.0000000000e+00
 88         0.0000000000e+00
 89         0.0000000000e+00
 90        -1.0788911465e-01
 91         0.0000000000e+00
 92         0.0000000000e+00
 93         1.3798142233e+00
 94         0.0000000000e+00
 95         0.0000000000e+00
 96         5.4435293631e-01
 97         0.0000000000e+00
 98         0.0000000000e+00
 99         0.0000000000e+00
100         2.5308937305e-02
101         0.0000000000e+00
102         0.0000000000e+00
103         4.3979623100e-02
104         0.0000000000e+00
105        -8.0712826085e-01
106         0.0000000000e+00
107         0.0000000000e+00
108        -9.6896944464e-01
109         0.0000000000e+00
110         1.7549243353e-02
111         0.0000000000e+00
112         0.0000000000e+00
113         1.1965101414e-01
114         2.4466276600e-02
115         0.0000000000e+00
 Sym= B2
 Ene=         4.7894655587e+00
 Spin= Alpha
 Occup=         0.0000000000e+00
  1         0.0000000000e+00
  2         0.0000000000e+00
  3         0.0000000000e+00
  4         0.0000000000e+00
  5         0.0000000000e+00
  6         0.0000000000e+00
  7         3.1529572353e-02
  8         0.0000000000e+00
  9         0.0000000000e+00
 10         3.0821862443e-01
 11         0.0000000000e+00
 12         0.0000000000e+00
 13         2.1576178325e+00
 14         0.0000000000e+00
 15         0.0000000000e+00
 16        -2.6375389265e-01
 17         0.0000000000e+00
 18         0.0000000000e+00
 19         0.0000000000e+00
 20        -6.6812666493e-03
 21         0.0000000000e+00
 22         0.0000000000e+00
 23         0.0000000000e+00
 24         0.0000000000e+00
 25         7.0535798323e-01
 26         0.0000000000e+00
 27         0.0000000000e+00
 28         0.0000000000e+00
 29         0.0000000000e+00
 30        -1.6095028921e+00
 31         0.0000000000e+00
 32         0.0000000000e+00
 33         0.0000000000e+00
 34         0.0000000000e+00
 35         1.1665707627e-01
 36         0.0000000000e+00
 37         0.0000000000e+00
 38         0.0000000000e+00
 39         2.1417477797e-02
 40         0.0000000000e+00
 41         0.0000000000e+00
 42        -2.1398460563e+00
 43         0.0000000000e+00
 44         0.0000000000e+00
 45         0.0000000000e+00
 46        -7.9271526957e-01
 47         0.0000000000e+00
 48         0.0000000000e+00
 49        -1.2619708318e-01
 50         0.0000000000e+00
 51         0.0000000000e+00
 52         0.0000000000e+00
 53        -7.3235000942e-03
 54         0.0000000000e+00
 55         0.0000000000e+00
 56         1.2104678722e-01
 57        -6.6929488858e-01
 58         1.0150555407e+00
 59        -2.6613954442e-01
 60         0.0000000000e+00
 61        -7.5361144503e-02
 62         2.1296853941e-01
 63         0.0000000000e+00
 64        -3.5751978530e-01
 65        -1.6911419873e+00
 66         0.0000000000e+00
 67         1.2060271173e-01
 68        -6.3186549531e-01
 69         4.3722605126e-02
 70         0.0000000000e+00
 71         8.6867526261e-04
 72         5.8026298841e-02
 73         0.0000000000e+00
 74         1.2054151651e+00
 75         0.0000000000e+00
 76        -6.7094953877e-01
 77         1.1970505860e-01
 78         0.0000000000e+00
 79        -6.5355762654e-02
 80         0.0000000000e+00
 81         2.9355553865e-01
 82         4.2103455109e-02
 83         0.0000000000e+00
 84         0.0000000000e+00
 85         2.6356557532e-02
 86        -1.2104678722e-01
 87         6.6929488858e-01
 88        -1.0150555407e+00
 89         2.6613954442e-01
 90         0.0000000000e+00
 91        -7.5361144503e-02
 92        -2.1296853941e-01
 93         0.0000000000e+00
 94        -3.5751978530e-01
 95         1.6911419873e+00
 96         0.0000000000e+00
 97         1.2060271173e-01
 98         6.3186549531e-01
 99        -4.3722605126e-02
100         0.0000000000e+00
101         8.6867526261e-04
102        -5.8026298841e-02
103         0.0000000000e+00
104        -1.2054151651e+00
105         0.0000000000e+00
106        -6.7094953877e-01
107        -1.1970505860e-01
108         0.0000000000e+00
109         6.5355762654e-02
110         0.0000000000e+00
111         2.9355553865e-01
112        -4.2103455109e-02
113         0.0000000000e+00
114         0.0000000000e+00
115         2.6356557532e-02
 Sym= A2
 Ene=         4.9282548535e+00
 Spin= Alpha
 Occup=         0.0000000000e+00
  1         0.0000000000e+00
  2         0.0000000000e+00
  3         0.0000000000e+00
  4         0.0000000000e+00
  5         0.0000000000e+00
  6         0.0000000000e+00
  7         0.0000000000e+00
  8         0.0000000000e+00
  9         0.0000000000e+00
 10         0.0000000000e+00
 11         0.0000000000e+00
 12         0.0000000000e+00
 13         0.0000000000e+00
 14         0.0000000000e+00
 15         0.0000000000e+00
 16         0.0000000000e+00
 17         0.0000000000e+00
 18         0.0000000000e+00
 19         0.0000000000e+00
 20         0.0000000000e+00
 21         0.0000000000e+00
 22         3.4882731559e-02
 23         0.0000000000e+00
 24         0.0000000000e+00
 25         0.0000000000e+00
 26         0.0000000000e+00
 27        -9.2393442244e-01
 28         0.0000000000e+00
 29         0.0000000000e+00
 30         0.0000000000e+00
 31         0.0000000000e+00
 32        -1.5861876467e+00
 33         0.0000000000e+00
 34         0.0000000000e+00
 35         0.0000000000e+00
 36         0.0000000000e+00
 37         8.3921156356e-02
 38         0.0000000000e+00
 39         0.0000000000e+00
 40         0.0000000000e+00
 41         0.0000000000e+00
 42         0.0000000000e+00
 43         0.0000000000e+00
 44        -1.6970039774e+00
 45         0.0000000000e+00
 46         0.0000000000e+00
 47         0.0000000000e+00
 48         0.0000000000e+00
 49         0.0000000000e+00
 50         0.0000000000e+00
 51        -2.0580465298e-02
 52         0.0000000000e+00
 53         0.0000000000e+00
 54         0.0000000000e+00
 55         4.9797636265e-03
 56         0.0000000000e+00
 57         0.0000000000e+00
 58         0.0000000000e+00
 59         0.0000000000e+00
 60         1.2182358701e-01
 61         0.0000000000e+00
 62         0.0000000000e+00
 63        -1.4407330610e+00
 64         0.0000000000e+00
 65         0.0000000000e+00
 66        -5.5701112676e-01
 67         0.0000000000e+00
 68         0.0000000000e+00
 69         0.0000000000e+00
 70        -3.5620276725e-02
 71         0.0000000000e+00
 72         0.0000000000e+00
 73         3.4185184125e-02
 74         0.0000000000e+00
 75         7.8257867285e-01
 76         0.0000000000e+00
 77         0.0000000000e+00
 78        -9.9185289484e-01
 79         0.0000000000e+00
 80        -3.7182915921e-02
 81         0.0000000000e+00
 82         0.0000000000e+00
 83         9.2951596310e-03
 84         9.7718356828e-02
 85         0.0000000000e+00
 86         0.0000000000e+00
 87         0.0000000000e+00
 88         0.0000000000e+00
 89         0.0000000000e+00
 90        -1.2182358701e-01
 91         0.0000000000e+00
 92         0.0000000000e+00
 93         1.4407330610e+00
 94         0.0000000000e+00
 95         0.0000000000e+00
 96         5.5701112676e-01
 97         0.0000000000e+00
 98         0.0000000000e+00
 99         0.0000000000e+00
100         3.5620276725e-02
101         0.0000000000e+00
102         0.0000000000e+00
103         3.4185184125e-02
104         0.0000000000e+00
105        -7.8257867285e-01
106         0.0000000000e+00
107         0.0000000000e+00
108        -9.9185289484e-01
109         0.0000000000e+00
110         3.7182915921e-02
111         0.0000000000e+00
112         0.0000000000e+00
113         9.2951596310e-03
114        -9.7718356828e-02
115         0.0000000000e+00
 Sym= B2
 Ene=         5.3636432789e+00
 Spin= Alpha
 Occup=         0.0000000000e+00
  1         0.0000000000e+00
  2         0.0000000000e+00
  3         0.0000000000e+00
  4         0.0000000000e+00
  5         0.0000000000e+00
  6         0.0000000000e+00
  7         2.6297121961e-02
  8         0.0000000000e+00
  9         0.0000000000e+00
 10        -1.7980815007e-01
 11         0.0000000000e+00
 12         0.0000000000e+00
 13        -4.4929536178e+00
 14         0.0000000000e+00
 15         0.0000000000e+00
 16        -8.9857677739e-01
 17         0.0000000000e+00
 18         0.0000000000e+00
 19         0.0000000000e+00
 20         7.0841171345e-02
 21         0.0000000000e+00
 22         0.0000000000e+00
 23         0.0000000000e+00
 24         0.0000000000e+00
 25        -1.8396555866e+00
 26         0.0000000000e+00
 27         0.0000000000e+00
 28         0.0000000000e+00
 29         0.0000000000e+00
 30        -1.7717080834e+00
 31         0.0000000000e+00
 32         0.0000000000e+00
 33         0.0000000000e+00
 34         0.0000000000e+00
 35         1.1753076622e-02
 36         0.0000000000e+00
 37         0.0000000000e+00
 38         0.0000000000e+00
 39         1.4449451302e-02
 40         0.0000000000e+00
 41         0.0000000000e+00
 42        -1.3653990022e+00
 43         0.0000000000e+00
 44         0.0000000000e+00
 45         0.0000000000e+00
 46         2.2736049670e-01
 47         0.0000000000e+00
 48         0.0000000000e+00
 49        -8.5549436844e-03
 50         0.0000000000e+00
 51         0.0000000000e+00
 52         0.0000000000e+00
 53        -5.8698876897e-03
 54         0.0000000000e+00
 55         0.0000000000e+00
 56        -1.5654350561e-01
 57        -2.1501070074e+00
 58        -3.7361445646e+00
 59         2.2294195937e-01
 60         0.0000000000e+00
 61         2.9177474791e-01
 62        -1.5811054643e-01
 63         0.0000000000e+00
 64        -2.4337733115e+00
 65         1.0767385330e+00
 66         0.0000000000e+00
 67        -1.2210401906e+00
 68         6.0587406444e-01
 69        -4.7347019653e-02
 70         0.0000000000e+00
 71         6.8297810957e-02
 72         6.1454922840e-02
 73         0.0000000000e+00
 74         4.2870688983e-01
 75         0.0000000000e+00
 76         6.3228903310e-01
 77         7.8808314372e-01
 78         0.0000000000e+00
 79        -9.0804658572e-02
 80         0.0000000000e+00
 81        -1.0614262256e-01
 82        -1.9578076491e-01
 83         0.0000000000e+00
 84         0.0000000000e+00
 85         2.0567079710e-01
 86         1.5654350561e-01
 87         2.1501070074e+00
 88         3.7361445646e+00
 89        -2.2294195937e-01
 90         0.0000000000e+00
 91         2.9177474791e-01
 92         1.5811054643e-01
 93         0.0000000000e+00
 94        -2.4337733115e+00
 95        -1.0767385330e+00
 96         0.0000000000e+00
 97        -1.2210401906e+00
 98        -6.0587406444e-01
 99         4.7347019653e-02
100         0.0000000000e+00
101         6.8297810957e-02
102        -6.1454922840e-02
103         0.0000000000e+00
104        -4.2870688983e-01
105         0.0000000000e+00
106         6.3228903310e-01
107        -7.8808314372e-01
108         0.0000000000e+00
109         9.0804658572e-02
110         0.0000000000e+00
111        -1.0614262256e-01
112         1.9578076491e-01
113         0.0000000000e+00
114         0.0000000000e+00
115         2.0567079710e-01
 Sym= A1
 Ene=         5.3911126084e+00
 Spin= Alpha
 Occup=         0.0000000000e+00
  1         2.4141759054e-01
  2         4.8475044075e-01
  3         2.6187355113e+00
  4        -8.3684691458e+00
  5        -4.9433707118e+00
  6         0.0000000000e+00
  7         0.0000000000e+00
  8        -3.8791519772e-04
  9         0.0000000000e+00
 10         0.0000000000e+00
 11        -2.0465710089e-01
 12         0.0000000000e+00
 13         0.0000000000e+00
 14        -3.5156191383e+00
 15         0.0000000000e+00
 16         0.0000000000e+00
 17        -9.6896992737e-01
 18         2.4261945347e-03
 19         0.0000000000e+00
 20         0.0000000000e+00
 21        -6.4736208709e-02
 22         0.0000000000e+00
 23         6.1196520125e-02
 24         0.0000000000e+00
 25         0.0000000000e+00
 26         1.2652523563e+00
 27         0.0000000000e+00
 28         7.5933886160e-01
 29         0.0000000000e+00
 30         0.0000000000e+00
 31         1.7270615735e+00
 32         0.0000000000e+00
 33        -1.4286624060e-02
 34         0.0000000000e+00
 35         0.0000000000e+00
 36         1.9174199042e-02
 37         0.0000000000e+00
 38         0.0000000000e+00
 39         0.0000000000e+00
 40         1.1578294206e+00
 41         0.0000000000e+00
 42         0.0000000000e+00
 43         1.2480406507e+00
 44         0.0000000000e+00
 45         0.0000000000e+00
 46         0.0000000000e+00
 47         1.3486255347e-02
 48         0.0000000000e+00
 49         0.0000000000e+00
 50         5.2886678282e-02
 51         0.0000000000e+00
 52         0.0000000000e+00
 53         0.0000000000e+00
 54         7.6532403528e-03
 55         0.0000000000e+00
 56         1.0795765586e-01
 57         2.5980105056e+00
 58         3.9650393044e+00
 59        -1.0533911574e-01
 60         0.0000000000e+00
 61        -1.1235247977e-01
 62         1.9020211771e-01
 63         0.0000000000e+00
 64         1.6327336874e+00
 65        -2.2108938470e+00
 66         0.0000000000e+00
 67         9.2740694836e-01
 68        -9.9735043087e-01
 69        -1.1971352398e-02
 70         0.0000000000e+00
 71        -1.2614494673e-01
 72        -1.2117306763e-01
 73         0.0000000000e+00
 74         4.1754571418e-01
 75         0.0000000000e+00
 76        -8.7304953813e-01
 77        -1.6378461461e-01
 78         0.0000000000e+00
 79         5.5055647013e-02
 80         0.0000000000e+00
 81         9.8952962737e-02
 82         4.4272997997e-01
 83         0.0000000000e+00
 84         0.0000000000e+00
 85         4.0946316756e-02
 86         1.0795765586e-01
 87         2.5980105056e+00
 88         3.9650393044e+00
 89        -1.0533911574e-01
 90         0.0000000000e+00
 91         1.1235247977e-01
 92         1.9020211771e-01
 93         0.0000000000e+00
 94        -1.6327336874e+00
 95        -2.2108938470e+00
 96         0.0000000000e+00
 97        -9.2740694836e-01
 98        -9.9735043087e-01
 99        -1.1971352398e-02
100         0.0000000000e+00
101         1.2614494673e-01
102        -1.2117306763e-01
103         0.0000000000e+00
104         4.1754571418e-01
105         0.0000000000e+00
106         8.7304953813e-01
107        -1.6378461461e-01
108         0.0000000000e+00
109         5.5055647013e-02
110         0.0000000000e+00
111        -9.8952962737e-02
112         4.4272997997e-01
113         0.0000000000e+00
114         0.0000000000e+00
115        -4.0946316756e-02
 Sym= B1
 Ene=         5.9623304537e+00
 Spin= Alpha
 Occup=         0.0000000000e+00
  1         0.0000000000e+00
  2         0.0000000000e+00
  3         0.0000000000e+00
  4         0.0000000000e+00
  5         0.0000000000e+00
  6         1.9048761717e-02
  7         0.0000000000e+00
  8         0.0000000000e+00
  9         6.1614844684e-02
 10         0.0000000000e+00
 11         0.0000000000e+00
 12        -5.0157670445e-01
 13         0.0000000000e+00
 14         0.0000000000e+00
 15        -3.3651036433e-02
 16         0.0000000000e+00
 17         0.0000000000e+00
 18         0.0000000000e+00
 19         4.4060875681e-03
 20         0.0000000000e+00
 21         0.0000000000e+00
 22         0.0000000000e+00
 23         0.0000000000e+00
 24        -1.6525933731e-01
 25         0.0000000000e+00
 26         0.0000000000e+00
 27         0.0000000000e+00
 28         0.0000000000e+00
 29        -2.7188754818e-01
 30         0.0000000000e+00
 31         0.0000000000e+00
 32         0.0000000000e+00
 33         0.0000000000e+00
 34         1.8094210882e-02
 35         0.0000000000e+00
 36         0.0000000000e+00
 37         0.0000000000e+00
 38         8.1172044626e-03
 39         0.0000000000e+00
 40         0.0000000000e+00
 41        -3.7146172118e-01
 42         0.0000000000e+00
 43         0.0000000000e+00
 44         0.0000000000e+00
 45         2.7812672065e-01
 46         0.0000000000e+00
 47         0.0000000000e+00
 48         7.3712399388e-02
 49         0.0000000000e+00
 50         0.0000000000e+00
 51         0.0000000000e+00
 52         1.8443700458e-02
 53         0.0000000000e+00
 54         0.0000000000e+00
 55         0.0000000000e+00
 56         0.0000000000e+00
 57         0.0000000000e+00
 58         0.0000000000e+00
 59         0.0000000000e+00
 60        -5.9138140850e-02
 61         0.0000000000e+00
 62         0.0000000000e+00
 63         3.3702957557e-01
 64         0.0000000000e+00
 65         0.0000000000e+00
 66         5.1474374378e-02
 67         0.0000000000e+00
 68         0.0000000000e+00
 69         0.0000000000e+00
 70         1.9339918073e-02
 71         0.0000000000e+00
 72         0.0000000000e+00
 73        -4.6549311854e-02
 74         0.0000000000e+00
 75        -1.0686284038e-01
 76         0.0000000000e+00
 77         0.0000000000e+00
 78         1.9717748766e-01
 79         0.0000000000e+00
 80         2.7771049692e-01
 81         0.0000000000e+00
 82         0.0000000000e+00
 83         4.0332497841e-01
 84        -4.8679047773e-01
 85         0.0000000000e+00
 86         0.0000000000e+00
 87         0.0000000000e+00
 88         0.0000000000e+00
 89         0.0000000000e+00
 90        -5.9138140850e-02
 91         0.0000000000e+00
 92         0.0000000000e+00
 93         3.3702957557e-01
 94         0.0000000000e+00
 95         0.0000000000e+00
 96         5.1474374378e-02
 97         0.0000000000e+00
 98         0.0000000000e+00
 99         0.0000000000e+00
100         1.9339918073e-02
101         0.0000000000e+00
102         0.0000000000e+00
103         4.6549311854e-02
104         0.0000000000e+00
105        -1.0686284038e-01
106         0.0000000000e+00
107         0.0000000000e+00
108        -1.9717748766e-01
109         0.0000000000e+00
110         2.7771049692e-01
111         0.0000000000e+00
112         0.0000000000e+00
113        -4.0332497841e-01
114        -4.8679047773e-01
115         0.0000000000e+00
 Sym= A1
 Ene=         6.1033599333e+00
 Spin= Alpha
 Occup=         0.0000000000e+00
  1         1.5967913736e-01
  2         3.1722748442e-01
  3         1.5855196531e+00
  4        -4.6215606495e+00
  5        -2.8873934493e+00
  6         0.0000000000e+00
  7         0.0000000000e+00
  8        -1.0685666306e-02
  9         0.0000000000e+00
 10         0.0000000000e+00
 11        -1.9328645956e-02
 12         0.0000000000e+00
 13         0.0000000000e+00
 14        -2.0300261938e+00
 15         0.0000000000e+00
 16         0.0000000000e+00
 17        -4.6903643933e-01
 18         1.3238932053e-02
 19         0.0000000000e+00
 20         0.0000000000e+00
 21        -1.4557842641e-02
 22         0.0000000000e+00
 23        -1.2029639089e-01
 24         0.0000000000e+00
 25         0.0000000000e+00
 26         5.6410815189e-01
 27         0.0000000000e+00
 28         4.9620735198e-01
 29         0.0000000000e+00
 30         0.0000000000e+00
 31         1.1447479838e+00
 32         0.0000000000e+00
 33         1.7739439417e-02
 34         0.0000000000e+00
 35         0.0000000000e+00
 36         6.9339198353e-03
 37         0.0000000000e+00
 38         0.0000000000e+00
 39         0.0000000000e+00
 40         3.4584195590e-01
 41         0.0000000000e+00
 42         0.0000000000e+00
 43         8.7761826517e-01
 44         0.0000000000e+00
 45         0.0000000000e+00
 46         0.0000000000e+00
 47         6.7547160705e-02
 48         0.0000000000e+00
 49         0.0000000000e+00
 50        -1.7239905096e-02
 51         0.0000000000e+00
 52         0.0000000000e+00
 53         0.0000000000e+00
 54        -3.6446276548e-02
 55         0.0000000000e+00
 56         3.9030328190e-02
 57         1.5186228564e+00
 58         2.1713356451e+00
 59        -2.3789326489e-02
 60         0.0000000000e+00
 61        -1.9092255847e-01
 62         7.6437455740e-02
 63         0.0000000000e+00
 64         9.6769613914e-01
 65        -1.1236008719e+00
 66         0.0000000000e+00
 67         4.6867482818e-01
 68        -6.5555459036e-01
 69        -1.9787682137e-02
 70         0.0000000000e+00
 71        -6.0933306066e-02
 72        -9.5819809124e-02
 73         0.0000000000e+00
 74         2.8022206900e-01
 75         0.0000000000e+00
 76        -4.4444701242e-01
 77        -1.0279710449e-01
 78         0.0000000000e+00
 79         1.7798497729e-01
 80         0.0000000000e+00
 81         2.3158130298e-01
 82        -3.3432613342e-01
 83         0.0000000000e+00
 84         0.0000000000e+00
 85        -4.5663196081e-01
 86         3.9030328190e-02
 87         1.5186228564e+00
 88         2.1713356451e+00
 89        -2.3789326489e-02
 90         0.0000000000e+00
 91         1.9092255847e-01
 92         7.6437455740e-02
 93         0.0000000000e+00
 94        -9.6769613914e-01
 95        -1.1236008719e+00
 96         0.0000000000e+00
 97        -4.6867482818e-01
 98        -6.5555459036e-01
 99        -1.9787682137e-02
100         0.0000000000e+00
101         6.0933306066e-02
102        -9.5819809124e-02
103         0.0000000000e+00
104         2.8022206900e-01
105         0.0000000000e+00
106         4.4444701242e-01
107        -1.0279710449e-01
108         0.0000000000e+00
109         1.7798497729e-01
110         0.0000000000e+00
111        -2.3158130298e-01
112        -3.3432613342e-01
113         0.0000000000e+00
114         0.0000000000e+00
115         4.5663196081e-01
 Sym= A2
 Ene=         6.2478101164e+00
 Spin= Alpha
 Occup=         0.0000000000e+00
  1         0.0000000000e+00
  2         0.0000000000e+00
  3         0.0000000000e+00
  4         0.0000000000e+00
  5         0.0000000000e+00
  6         0.0000000000e+00
  7         0.0000000000e+00
  8         0.0000000000e+00
  9         0.0000000000e+00
 10         0.0000000000e+00
 11         0.0000000000e+00
 12         0.0000000000e+00
 13         0.0000000000e+00
 14         0.0000000000e+00
 15         0.0000000000e+00
 16         0.0000000000e+00
 17         0.0000000000e+00
 18         0.0000000000e+00
 19         0.0000000000e+00
 20         0.0000000000e+00
 21         0.0000000000e+00
 22         5.5147046781e-03
 23         0.0000000000e+00
 24         0.0000000000e+00
 25         0.0000000000e+00
 26         0.0000000000e+00
 27        -5.6543036078e-02
 28         0.0000000000e+00
 29         0.0000000000e+00
 30         0.0000000000e+00
 31         0.0000000000e+00
 32        -4.0474690334e-01
 33         0.0000000000e+00
 34         0.0000000000e+00
 35         0.0000000000e+00
 36         0.0000000000e+00
 37         5.4702106936e-03
 38         0.0000000000e+00
 39         0.0000000000e+00
 40         0.0000000000e+00
 41         0.0000000000e+00
 42         0.0000000000e+00
 43         0.0000000000e+00
 44        -5.4426779281e-01
 45         0.0000000000e+00
 46         0.0000000000e+00
 47         0.0000000000e+00
 48         0.0000000000e+00
 49         0.0000000000e+00
 50         0.0000000000e+00
 51         2.8728502716e-03
 52         0.0000000000e+00
 53         0.0000000000e+00
 54         0.0000000000e+00
 55         6.7423276698e-02
 56         0.0000000000e+00
 57         0.0000000000e+00
 58         0.0000000000e+00
 59         0.0000000000e+00
 60         4.2902718317e-02
 61         0.0000000000e+00
 62         0.0000000000e+00
 63        -3.8279191915e-01
 64         0.0000000000e+00
 65         0.0000000000e+00
 66        -1.0127264083e-01
 67         0.0000000000e+00
 68         0.0000000000e+00
 69         0.0000000000e+00
 70        -1.6246542803e-02
 71         0.0000000000e+00
 72         0.0000000000e+00
 73         3.4105173661e-02
 74         0.0000000000e+00
 75         1.7091947626e-01
 76         0.0000000000e+00
 77         0.0000000000e+00
 78        -2.2151020798e-01
 79         0.0000000000e+00
 80         5.7786754440e-01
 81         0.0000000000e+00
 82         0.0000000000e+00
 83         3.9197413634e-01
 84        -1.5053625979e-01
 85         0.0000000000e+00
 86         0.0000000000e+00
 87         0.0000000000e+00
 88         0.0000000000e+00
 89         0.0000000000e+00
 90        -4.2902718317e-02
 91         0.0000000000e+00
 92         0.0000000000e+00
 93         3.8279191915e-01
 94         0.0000000000e+00
 95         0.0000000000e+00
 96         1.0127264083e-01
 97         0.0000000000e+00
 98         0.0000000000e+00
 99         0.0000000000e+00
100         1.6246542803e-02
101         0.0000000000e+00
102         0.0000000000e+00
103         3.4105173661e-02
104         0.0000000000e+00
105        -1.7091947626e-01
106         0.0000000000e+00
107         0.0000000000e+00
108        -2.2151020798e-01
109         0.0000000000e+00
110        -5.7786754440e-01
111         0.0000000000e+00
112         0.0000000000e+00
113         3.9197413634e-01
114         1.5053625979e-01
115         0.0000000000e+00
 Sym= B2
 Ene=         6.3252134922e+00
 Spin= Alpha
 Occup=         0.0000000000e+00
  1         0.0000000000e+00
  2         0.0000000000e+00
  3         0.0000000000e+00
  4         0.0000000000e+00
  5         0.0000000000e+00
  6         0.0000000000e+00
  7         3.4111844567e-02
  8         0.0000000000e+00
  9         0.0000000000e+00
 10         1.9917927859e-01
 11         0.0000000000e+00
 12         0.0000000000e+00
 13        -1.2746287072e+00
 14         0.0000000000e+00
 15         0.0000000000e+00
 16        -2.6480141642e-01
 17         0.0000000000e+00
 18         0.0000000000e+00
 19         0.0000000000e+00
 20         9.4945248876e-04
 21         0.0000000000e+00
 22         0.0000000000e+00
 23         0.0000000000e+00
 24         0.0000000000e+00
 25        -2.1730305086e-01
 26         0.0000000000e+00
 27         0.0000000000e+00
 28         0.0000000000e+00
 29         0.0000000000e+00
 30        -5.1656139232e-01
 31         0.0000000000e+00
 32         0.0000000000e+00
 33         0.0000000000e+00
 34         0.0000000000e+00
 35        -7.6340588157e-03
 36         0.0000000000e+00
 37         0.0000000000e+00
 38         0.0000000000e+00
 39        -3.3340442563e-03
 40         0.0000000000e+00
 41         0.0000000000e+00
 42        -1.6769534172e-01
 43         0.0000000000e+00
 44         0.0000000000e+00
 45         0.0000000000e+00
 46         3.5768151727e-01
 47         0.0000000000e+00
 48         0.0000000000e+00
 49        -2.3554074507e-02
 50         0.0000000000e+00
 51         0.0000000000e+00
 52         0.0000000000e+00
 53         1.9015161227e-02
 54         0.0000000000e+00
 55         0.0000000000e+00
 56        -2.1114737088e-02
 57        -6.8982678254e-01
 58        -4.2708012523e-01
 59         3.8224496012e-02
 60         0.0000000000e+00
 61         1.2925820404e-01
 62        -3.0866912733e-02
 63         0.0000000000e+00
 64        -4.2137290521e-01
 65         3.1665326635e-01
 66         0.0000000000e+00
 67         6.3833378718e-02
 68         1.4534734969e-01
 69         3.0165384742e-02
 70         0.0000000000e+00
 71         5.1983083545e-02
 72        -1.3899881533e-02
 73         0.0000000000e+00
 74        -9.6861010563e-02
 75         0.0000000000e+00
 76         6.8276530269e-02
 77        -1.4956256112e-02
 78         0.0000000000e+00
 79         2.6880632698e-01
 80         0.0000000000e+00
 81         3.4242778187e-01
 82        -4.3817004097e-01
 83         0.0000000000e+00
 84         0.0000000000e+00
 85        -3.5007411314e-01
 86         2.1114737088e-02
 87         6.8982678254e-01
 88         4.2708012523e-01
 89        -3.8224496012e-02
 90         0.0000000000e+00
 91         1.2925820404e-01
 92         3.0866912733e-02
 93         0.0000000000e+00
 94        -4.2137290521e-01
 95        -3.1665326635e-01
 96         0.0000000000e+00
 97         6.3833378718e-02
 98        -1.4534734969e-01
 99        -3.0165384742e-02
100         0.0000000000e+00
101         5.1983083545e-02
102         1.3899881533e-02
103         0.0000000000e+00
104         9.6861010563e-02
105         0.0000000000e+00
106         6.8276530269e-02
107         1.4956256112e-02
108         0.0000000000e+00
109        -2.6880632698e-01
110         0.0000000000e+00
111         3.4242778187e-01
112         4.3817004097e-01
113         0.0000000000e+00
114         0.0000000000e+00
115        -3.5007411314e-01
 Sym= A2
 Ene=         6.7490577128e+00
 Spin= Alpha
 Occup=         0.0000000000e+00
  1         0.0000000000e+00
  2         0.0000000000e+00
  3         0.0000000000e+00
  4         0.0000000000e+00
  5         0.0000000000e+00
  6         0.0000000000e+00
  7         0.0000000000e+00
  8         0.0000000000e+00
  9         0.0000000000e+00
 10         0.0000000000e+00
 11         0.0000000000e+00
 12         0.0000000000e+00
 13         0.0000000000e+00
 14         0.0000000000e+00
 15         0.0000000000e+00
 16         0.0000000000e+00
 17         0.0000000000e+00
 18         0.0000000000e+00
 19         0.0000000000e+00
 20         0.0000000000e+00
 21         0.0000000000e+00
 22         1.1399206481e-02
 23         0.0000000000e+00
 24         0.0000000000e+00
 25         0.0000000000e+00
 26         0.0000000000e+00
 27         1.4724253421e-01
 28         0.0000000000e+00
 29         0.0000000000e+00
 30         0.0000000000e+00
 31         0.0000000000e+00
 32         2.0088233073e-01
 33         0.0000000000e+00
 34         0.0000000000e+00
 35         0.0000000000e+00
 36         0.0000000000e+00
 37         4.5200944217e-02
 38         0.0000000000e+00
 39         0.0000000000e+00
 40         0.0000000000e+00
 41         0.0000000000e+00
 42         0.0000000000e+00
 43         0.0000000000e+00
 44        -7.3860238501e-02
 45         0.0000000000e+00
 46         0.0000000000e+00
 47         0.0000000000e+00
 48         0.0000000000e+00
 49         0.0000000000e+00
 50         0.0000000000e+00
 51         8.2575719958e-02
 52         0.0000000000e+00
 53         0.0000000000e+00
 54         0.0000000000e+00
 55         2.1423824069e-02
 56         0.0000000000e+00
 57         0.0000000000e+00
 58         0.0000000000e+00
 59         0.0000000000e+00
 60        -1.1441365583e-01
 61         0.0000000000e+00
 62         0.0000000000e+00
 63         1.5663716416e-01
 64         0.0000000000e+00
 65         0.0000000000e+00
 66        -9.3889727146e-03
 67         0.0000000000e+00
 68         0.0000000000e+00
 69         0.0000000000e+00
 70        -6.8550888978e-02
 71         0.0000000000e+00
 72         0.0000000000e+00
 73        -1.7175297159e-01
 74         0.0000000000e+00
 75        -1.0548476946e-01
 76         0.0000000000e+00
 77         0.0000000000e+00
 78         4.4540900934e-03
 79         0.0000000000e+00
 80         3.4414644037e-01
 81         0.0000000000e+00
 82         0.0000000000e+00
 83        -2.8721366389e-01
 84         5.4298165570e-01
 85         0.0000000000e+00
 86         0.0000000000e+00
 87         0.0000000000e+00
 88         0.0000000000e+00
 89         0.0000000000e+00
 90         1.1441365583e-01
 91         0.0000000000e+00
 92         0.0000000000e+00
 93        -1.5663716416e-01
 94         0.0000000000e+00
 95         0.0000000000e+00
 96         9.3889727146e-03
 97         0.0000000000e+00
 98         0.0000000000e+00
 99         0.0000000000e+00
100         6.8550888978e-02
101         0.0000000000e+00
102         0.0000000000e+00
103        -1.7175297159e-01
104         0.0000000000e+00
105         1.0548476946e-01
106         0.0000000000e+00
107         0.0000000000e+00
108         4.4540900934e-03
109         0.0000000000e+00
110        -3.4414644037e-01
111         0.0000000000e+00
112         0.0000000000e+00
113        -2.8721366389e-01
114        -5.4298165570e-01
115         0.0000000000e+00
 Sym= A1
 Ene=         6.7780088144e+00
 Spin= Alpha
 Occup=         0.0000000000e+00
  1         2.1870044220e-02
  2         3.2391442770e-02
  3         2.7925841655e-01
  4        -1.1636465967e+00
  5        -7.5891481986e-01
  6         0.0000000000e+00
  7         0.0000000000e+00
  8        -6.0395182600e-02
  9         0.0000000000e+00
 10         0.0000000000e+00
 11        -1.1054191468e-01
 12         0.0000000000e+00
 13         0.0000000000e+00
 14         2.9297570822e-01
 15         0.0000000000e+00
 16         0.0000000000e+00
 17         1.1849490907e-01
 18         4.2145967710e-05
 19         0.0000000000e+00
 20         0.0000000000e+00
 21        -2.1376628904e-02
 22         0.0000000000e+00
 23         3.0839442563e-01
 24         0.0000000000e+00
 25         0.0000000000e+00
 26         9.2260631523e-03
 27         0.0000000000e+00
 28         1.1315492086e+00
 29         0.0000000000e+00
 30         0.0000000000e+00
 31         5.4722196480e-01
 32         0.0000000000e+00
 33        -4.4383013042e-02
 34         0.0000000000e+00
 35         0.0000000000e+00
 36        -7.3792793058e-04
 37         0.0000000000e+00
 38         0.0000000000e+00
 39         0.0000000000e+00
 40         1.0346052904e+00
 41         0.0000000000e+00
 42         0.0000000000e+00
 43         2.5232714040e-01
 44         0.0000000000e+00
 45         0.0000000000e+00
 46         0.0000000000e+00
 47        -2.3888491672e-02
 48         0.0000000000e+00
 49         0.0000000000e+00
 50         1.1404087771e-02
 51         0.0000000000e+00
 52         0.0000000000e+00
 53         0.0000000000e+00
 54        -8.3398613966e-02
 55         0.0000000000e+00
 56        -5.6141734705e-02
 57         4.7532802243e-01
 58         4.4901599374e-01
 59         4.7216753141e-02
 60         0.0000000000e+00
 61         1.5875794699e-01
 62         3.0519058293e-02
 63         0.0000000000e+00
 64        -2.8832084208e-01
 65        -7.0602105245e-01
 66         0.0000000000e+00
 67         6.4155079351e-02
 68        -4.4492048584e-01
 69        -6.5471557187e-02
 70         0.0000000000e+00
 71        -1.0882285882e-02
 72        -4.6868371581e-02
 73         0.0000000000e+00
 74         3.0842491691e-01
 75         0.0000000000e+00
 76        -3.6283141138e-01
 77         3.3580237221e-01
 78         0.0000000000e+00
 79         6.2140750891e-01
 80         0.0000000000e+00
 81         2.3981266100e-01
 82        -8.6978368816e-02
 83         0.0000000000e+00
 84         0.0000000000e+00
 85         4.3058373348e-01
 86        -5.6141734705e-02
 87         4.7532802243e-01
 88         4.4901599374e-01
 89         4.7216753141e-02
 90         0.0000000000e+00
 91        -1.5875794699e-01
 92         3.0519058293e-02
 93         0.0000000000e+00
 94         2.8832084208e-01
 95        -7.0602105245e-01
 96         0.0000000000e+00
 97        -6.4155079351e-02
 98        -4.4492048584e-01
 99        -6.5471557187e-02
100         0.0000000000e+00
101         1.0882285882e-02
102        -4.6868371581e-02
103         0.0000000000e+00
104         3.0842491691e-01
105         0.0000000000e+00
106         3.6283141138e-01
107         3.3580237221e-01
108         0.0000000000e+00
109         6.2140750891e-01
110         0.0000000000e+00
111        -2.3981266100e-01
112        -8.6978368816e-02
113         0.0000000000e+00
114         0.0000000000e+00
115        -4.3058373348e-01
 Sym= B2
 Ene=         7.0784700703e+00
 Spin= Alpha
 Occup=         0.0000000000e+00
  1         0.0000000000e+00
  2         0.0000000000e+00
  3         0.0000000000e+00
  4         0.0000000000e+00
  5         0.0000000000e+00
  6         0.0000000000e+00
  7         3.8079431856e-02
  8         0.0000000000e+00
  9         0.0000000000e+00
 10         3.7803724567e-01
 11         0.0000000000e+00
 12         0.0000000000e+00
 13        -8.8756387852e-01
 14         0.0000000000e+00
 15         0.0000000000e+00
 16        -5.7774544834e-01
 17         0.0000000000e+00
 18         0.0000000000e+00
 19         0.0000000000e+00
 20        -3.9859534147e-02
 21         0.0000000000e+00
 22         0.0000000000e+00
 23         0.0000000000e+00
 24         0.0000000000e+00
 25        -2.4085102345e-02
 26         0.0000000000e+00
 27         0.0000000000e+00
 28         0.0000000000e+00
 29         0.0000000000e+00
 30        -9.3259532505e-01
 31         0.0000000000e+00
 32         0.0000000000e+00
 33         0.0000000000e+00
 34         0.0000000000e+00
 35        -4.4909558445e-02
 36         0.0000000000e+00
 37         0.0000000000e+00
 38         0.0000000000e+00
 39         2.5257311284e-02
 40         0.0000000000e+00
 41         0.0000000000e+00
 42        -3.2828342729e-01
 43         0.0000000000e+00
 44         0.0000000000e+00
 45         0.0000000000e+00
 46        -5.5369929635e-01
 47         0.0000000000e+00
 48         0.0000000000e+00
 49        -1.0490711226e-01
 50         0.0000000000e+00
 51         0.0000000000e+00
 52         0.0000000000e+00
 53         6.6956863878e-02
 54         0.0000000000e+00
 55         0.0000000000e+00
 56         5.2547270936e-03
 57        -4.4731860064e-01
 58        -9.1774390104e-01
 59         6.8105054371e-03
 60         0.0000000000e+00
 61         3.5786886553e-01
 62         7.1883913970e-02
 63         0.0000000000e+00
 64        -6.5487847234e-01
 65        -1.6617897929e-01
 66         0.0000000000e+00
 67        -8.0744498929e-02
 68         1.9213215615e-01
 69        -7.6680079904e-02
 70         0.0000000000e+00
 71         6.7875969903e-02
 72        -1.1070143284e-01
 73         0.0000000000e+00
 74         3.3122145933e-01
 75         0.0000000000e+00
 76        -1.1943689648e-02
 77        -8.5954416514e-02
 78         0.0000000000e+00
 79        -4.0545250810e-01
 80         0.0000000000e+00
 81         1.6408805892e-02
 82         2.9387319964e-01
 83         0.0000000000e+00
 84         0.0000000000e+00
 85        -5.2960022872e-01
 86        -5.2547270936e-03
 87         4.4731860064e-01
 88         9.1774390104e-01
 89        -6.8105054371e-03
 90         0.0000000000e+00
 91         3.5786886553e-01
 92        -7.1883913970e-02
 93         0.0000000000e+00
 94        -6.5487847234e-01
 95         1.6617897929e-01
 96         0.0000000000e+00
 97        -8.0744498929e-02
 98        -1.9213215615e-01
 99         7.6680079904e-02
100         0.0000000000e+00
101         6.7875969903e-02
102         1.1070143284e-01
103         0.0000000000e+00
104        -3.3122145933e-01
105         0.0000000000e+00
106        -1.1943689648e-02
107         8.5954416514e-02
108         0.0000000000e+00
109         4.0545250810e-01
110         0.0000000000e+00
111         1.6408805892e-02
112        -2.9387319964e-01
113         0.0000000000e+00
114         0.0000000000e+00
115        -5.2960022872e-01
 Sym= B2
 Ene=         7.2724556930e+00
 Spin= Alpha
 Occup=         0.0000000000e+00
  1         0.0000000000e+00
  2         0.0000000000e+00
  3         0.0000000000e+00
  4         0.0000000000e+00
  5         0.0000000000e+00
  6         0.0000000000e+00
  7         1.6757321293e-01
  8         0.0000000000e+00
  9         0.0000000000e+00
 10         3.2018449356e-01
 11         0.0000000000e+00
 12         0.0000000000e+00
 13         5.4431944832e-01
 14         0.0000000000e+00
 15         0.0000000000e+00
 16         4.1710554958e-01
 17         0.0000000000e+00
 18         0.0000000000e+00
 19         0.0000000000e+00
 20        -4.3206663028e-02
 21         0.0000000000e+00
 22         0.0000000000e+00
 23         0.0000000000e+00
 24         0.0000000000e+00
 25        -1.6780484194e-01
 26         0.0000000000e+00
 27         0.0000000000e+00
 28         0.0000000000e+00
 29         0.0000000000e+00
 30        -4.7847098086e-01
 31         0.0000000000e+00
 32         0.0000000000e+00
 33         0.0000000000e+00
 34         0.0000000000e+00
 35         7.8454832354e-02
 36         0.0000000000e+00
 37         0.0000000000e+00
 38         0.0000000000e+00
 39         3.2399704874e-02
 40         0.0000000000e+00
 41         0.0000000000e+00
 42        -7.3024295432e-01
 43         0.0000000000e+00
 44         0.0000000000e+00
 45         0.0000000000e+00
 46        -4.0031800918e-01
 47         0.0000000000e+00
 48         0.0000000000e+00
 49        -8.9834052840e-02
 50         0.0000000000e+00
 51         0.0000000000e+00
 52         0.0000000000e+00
 53        -1.7058777657e-02
 54         0.0000000000e+00
 55         0.0000000000e+00
 56         1.8404084801e-02
 57        -2.8389622517e-01
 58         2.9131491023e-01
 59         6.2999516045e-02
 60         0.0000000000e+00
 61        -1.8555235452e-01
 62        -5.5241324720e-01
 63         0.0000000000e+00
 64        -1.8917343429e-01
 65         1.2699086823e-01
 66         0.0000000000e+00
 67        -2.5613320808e-01
 68        -7.3519737462e-01
 69         6.7513243700e-02
 70         0.0000000000e+00
 71        -8.4669421017e-02
 72         2.9294015943e-02
 73         0.0000000000e+00
 74         6.7720000563e-01
 75         0.0000000000e+00
 76        -2.7480554913e-01
 77         2.4626289221e-01
 78         0.0000000000e+00
 79        -2.8887746796e-01
 80         0.0000000000e+00
 81         6.6535266982e-01
 82         2.3320459102e-01
 83         0.0000000000e+00
 84         0.0000000000e+00
 85         1.2271822161e-01
 86        -1.8404084801e-02
 87         2.8389622517e-01
 88        -2.9131491023e-01
 89        -6.2999516045e-02
 90         0.0000000000e+00
 91        -1.8555235452e-01
 92         5.5241324720e-01
 93         0.0000000000e+00
 94        -1.8917343429e-01
 95        -1.2699086823e-01
 96         0.0000000000e+00
 97        -2.5613320808e-01
 98         7.3519737462e-01
 99        -6.7513243700e-02
100         0.0000000000e+00
101        -8.4669421017e-02
102        -2.9294015943e-02
103         0.0000000000e+00
104        -6.7720000563e-01
105         0.0000000000e+00
106        -2.7480554913e-01
107        -2.4626289221e-01
108         0.0000000000e+00
109         2.8887746796e-01
110         0.0000000000e+00
111         6.6535266982e-01
112        -2.3320459102e-01
113         0.0000000000e+00
114         0.0000000000e+00
115         1.2271822161e-01
 Sym= B1
 Ene=         7.3055870959e+00
 Spin= Alpha
 Occup=         0.0000000000e+00
  1         0.0000000000e+00
  2         0.0000000000e+00
  3         0.0000000000e+00
  4         0.0000000000e+00
  5         0.0000000000e+00
  6         1.5769472651e-01
  7         0.0000000000e+00
  8         0.0000000000e+00
  9        -5.9748970853e-02
 10         0.0000000000e+00
 11         0.0000000000e+00
 12         1.1386941990e+00
 13         0.0000000000e+00
 14         0.0000000000e+00
 15         1.1762687684e-01
 16         0.0000000000e+00
 17         0.0000000000e+00
 18         0.0000000000e+00
 19        -4.1234502253e-02
 20         0.0000000000e+00
 21         0.0000000000e+00
 22         0.0000000000e+00
 23         0.0000000000e+00
 24         3.4658023871e-01
 25         0.0000000000e+00
 26         0.0000000000e+00
 27         0.0000000000e+00
 28         0.0000000000e+00
 29         8.6874371786e-03
 30         0.0000000000e+00
 31         0.0000000000e+00
 32         0.0000000000e+00
 33         0.0000000000e+00
 34         2.4801506996e-02
 35         0.0000000000e+00
 36         0.0000000000e+00
 37         0.0000000000e+00
 38         7.2036118357e-02
 39         0.0000000000e+00
 40         0.0000000000e+00
 41        -4.7059525487e-01
 42         0.0000000000e+00
 43         0.0000000000e+00
 44         0.0000000000e+00
 45        -8.6595546816e-01
 46         0.0000000000e+00
 47         0.0000000000e+00
 48         8.2670980904e-02
 49         0.0000000000e+00
 50         0.0000000000e+00
 51         0.0000000000e+00
 52        -4.4609223680e-02
 53         0.0000000000e+00
 54         0.0000000000e+00
 55         0.0000000000e+00
 56         0.0000000000e+00
 57         0.0000000000e+00
 58         0.0000000000e+00
 59         0.0000000000e+00
 60        -4.1141937849e-01
 61         0.0000000000e+00
 62         0.0000000000e+00
 63        -6.7992281321e-03
 64         0.0000000000e+00
 65         0.0000000000e+00
 66        -4.0538719460e-01
 67         0.0000000000e+00
 68         0.0000000000e+00
 69         0.0000000000e+00
 70         1.3552030007e-02
 71         0.0000000000e+00
 72         0.0000000000e+00
 73        -4.4774118071e-02
 74         0.0000000000e+00
 75         6.0538697608e-01
 76         0.0000000000e+00
 77         0.0000000000e+00
 78        -2.0653608179e-01
 79         0.0000000000e+00
 80        -7.1527990371e-01
 81         0.0000000000e+00
 82         0.0000000000e+00
 83         4.5583419991e-01
 84         2.2048080121e-02
 85         0.0000000000e+00
 86         0.0000000000e+00
 87         0.0000000000e+00
 88         0.0000000000e+00
 89         0.0000000000e+00
 90        -4.1141937849e-01
 91         0.0000000000e+00
 92         0.0000000000e+00
 93        -6.7992281321e-03
 94         0.0000000000e+00
 95         0.0000000000e+00
 96        -4.0538719460e-01
 97         0.0000000000e+00
 98         0.0000000000e+00
 99         0.0000000000e+00
100         1.3552030007e-02
101         0.0000000000e+00
102         0.0000000000e+00
103         4.4774118071e-02
104         0.0000000000e+00
105         6.0538697608e-01
106         0.0000000000e+00
107         0.0000000000e+00
108         2.0653608179e-01
109         0.0000000000e+00
110        -7.1527990371e-01
111         0.0000000000e+00
112         0.0000000000e+00
113        -4.5583419991e-01
114         2.2048080121e-02
115         0.0000000000e+00
 Sym= B1
 Ene=         7.3631175175e+00
 Spin= Alpha
 Occup=         0.0000000000e+00
  1         0.0000000000e+00
  2         0.0000000000e+00
  3         0.0000000000e+00
  4         0.0000000000e+00
  5         0.0000000000e+00
  6         1.4433513952e-01
  7         0.0000000000e+00
  8         0.0000000000e+00
  9        -6.0345371875e-02
 10         0.0000000000e+00
 11         0.0000000000e+00
 12         1.2600501082e+00
 13         0.0000000000e+00
 14         0.0000000000e+00
 15         2.7394657644e-01
 16         0.0000000000e+00
 17         0.0000000000e+00
 18         0.0000000000e+00
 19        -2.0900052095e-02
 20         0.0000000000e+00
 21         0.0000000000e+00
 22         0.0000000000e+00
 23         0.0000000000e+00
 24         6.6811630461e-01
 25         0.0000000000e+00
 26         0.0000000000e+00
 27         0.0000000000e+00
 28         0.0000000000e+00
 29         6.7794345713e-01
 30         0.0000000000e+00
 31         0.0000000000e+00
 32         0.0000000000e+00
 33         0.0000000000e+00
 34        -4.4403443221e-02
 35         0.0000000000e+00
 36         0.0000000000e+00
 37         0.0000000000e+00
 38         8.0814746300e-03
 39         0.0000000000e+00
 40         0.0000000000e+00
 41         6.4924314556e-01
 42         0.0000000000e+00
 43         0.0000000000e+00
 44         0.0000000000e+00
 45         5.9082591677e-02
 46         0.0000000000e+00
 47         0.0000000000e+00
 48        -7.4692062818e-02
 49         0.0000000000e+00
 50         0.0000000000e+00
 51         0.0000000000e+00
 52        -5.3156298461e-02
 53         0.0000000000e+00
 54         0.0000000000e+00
 55         0.0000000000e+00
 56         0.0000000000e+00
 57         0.0000000000e+00
 58         0.0000000000e+00
 59         0.0000000000e+00
 60        -4.7580589913e-01
 61         0.0000000000e+00
 62         0.0000000000e+00
 63         3.6536545931e-02
 64         0.0000000000e+00
 65         0.0000000000e+00
 66        -5.7370134556e-01
 67         0.0000000000e+00
 68         0.0000000000e+00
 69         0.0000000000e+00
 70         5.3762796799e-02
 71         0.0000000000e+00
 72         0.0000000000e+00
 73         8.6774795499e-02
 74         0.0000000000e+00
 75         1.3829632155e-01
 76         0.0000000000e+00
 77         0.0000000000e+00
 78        -6.8517924670e-01
 79         0.0000000000e+00
 80         3.9269779666e-01
 81         0.0000000000e+00
 82         0.0000000000e+00
 83         3.5863829089e-01
 84         6.0674437101e-01
 85         0.0000000000e+00
 86         0.0000000000e+00
 87         0.0000000000e+00
 88         0.0000000000e+00
 89         0.0000000000e+00
 90        -4.7580589913e-01
 91         0.0000000000e+00
 92         0.0000000000e+00
 93         3.6536545931e-02
 94         0.0000000000e+00
 95         0.0000000000e+00
 96        -5.7370134556e-01
 97         0.0000000000e+00
 98         0.0000000000e+00
 99         0.0000000000e+00
100         5.3762796799e-02
101         0.0000000000e+00
102         0.0000000000e+00
103        -8.6774795499e-02
104         0.0000000000e+00
105         1.3829632155e-01
106         0.0000000000e+00
107         0.0000000000e+00
108         6.8517924670e-01
109         0.0000000000e+00
110         3.9269779666e-01
111         0.0000000000e+00
112         0.0000000000e+00
113        -3.5863829089e-01
114         6.0674437101e-01
115         0.0000000000e+00
 Sym= A2
 Ene=         7.4359184551e+00
 Spin= Alpha
 Occup=         0.0000000000e+00
  1         0.0000000000e+00
  2         0.0000000000e+00
  3         0.0000000000e+00
  4         0.0000000000e+00
  5         0.0000000000e+00
  6         0.0000000000e+00
  7         0.0000000000e+00
  8         0.0000000000e+00
  9         0.0000000000e+00
 10         0.0000000000e+00
 11         0.0000000000e+00
 12         0.0000000000e+00
 13         0.0000000000e+00
 14         0.0000000000e+00
 15         0.0000000000e+00
 16         0.0000000000e+00
 17         0.0000000000e+00
 18         0.0000000000e+00
 19         0.0000000000e+00
 20         0.0000000000e+00
 21         0.0000000000e+00
 22         4.1468582809e-02
 23         0.0000000000e+00
 24         0.0000000000e+00
 25         0.0000000000e+00
 26         0.0000000000e+00
 27        -8.4115419708e-01
 28         0.0000000000e+00
 29         0.0000000000e+00
 30         0.0000000000e+00
 31         0.0000000000e+00
 32        -5.2245424512e-01
 33         0.0000000000e+00
 34         0.0000000000e+00
 35         0.0000000000e+00
 36         0.0000000000e+00
 37         5.9475002752e-02
 38         0.0000000000e+00
 39         0.0000000000e+00
 40         0.0000000000e+00
 41         0.0000000000e+00
 42         0.0000000000e+00
 43         0.0000000000e+00
 44        -5.1444030417e-01
 45         0.0000000000e+00
 46         0.0000000000e+00
 47         0.0000000000e+00
 48         0.0000000000e+00
 49         0.0000000000e+00
 50         0.0000000000e+00
 51        -2.2827991665e-02
 52         0.0000000000e+00
 53         0.0000000000e+00
 54         0.0000000000e+00
 55         2.5238452195e-02
 56         0.0000000000e+00
 57         0.0000000000e+00
 58         0.0000000000e+00
 59         0.0000000000e+00
 60        -7.2278883121e-01
 61         0.0000000000e+00
 62         0.0000000000e+00
 63         1.9472541423e-01
 64         0.0000000000e+00
 65         0.0000000000e+00
 66        -6.2865174348e-01
 67         0.0000000000e+00
 68         0.0000000000e+00
 69         0.0000000000e+00
 70        -8.1367808529e-02
 71         0.0000000000e+00
 72         0.0000000000e+00
 73         3.9331554985e-02
 74         0.0000000000e+00
 75         4.8059137649e-01
 76         0.0000000000e+00
 77         0.0000000000e+00
 78        -5.7777908634e-01
 79         0.0000000000e+00
 80        -2.0611070529e-01
 81         0.0000000000e+00
 82         0.0000000000e+00
 83         5.7167846339e-01
 84         3.5122072596e-01
 85         0.0000000000e+00
 86         0.0000000000e+00
 87         0.0000000000e+00
 88         0.0000000000e+00
 89         0.0000000000e+00
 90         7.2278883121e-01
 91         0.0000000000e+00
 92         0.0000000000e+00
 93        -1.9472541423e-01
 94         0.0000000000e+00
 95         0.0000000000e+00
 96         6.2865174348e-01
 97         0.0000000000e+00
 98         0.0000000000e+00
 99         0.0000000000e+00
100         8.1367808529e-02
101         0.0000000000e+00
102         0.0000000000e+00
103         3.9331554985e-02
104         0.0000000000e+00
105        -4.8059137649e-01
106         0.0000000000e+00
107         0.0000000000e+00
108        -5.7777908634e-01
109         0.0000000000e+00
110         2.0611070529e-01
111         0.0000000000e+00
112         0.0000000000e+00
113         5.7167846339e-01
114        -3.5122072596e-01
115         0.0000000000e+00
 Sym= B2
 Ene=         7.5483281313e+00
 Spin= Alpha
 Occup=         0.0000000000e+00
  1         0.0000000000e+00
  2         0.0000000000e+00
  3         0.0000000000e+00
  4         0.0000000000e+00
  5         0.0000000000e+00
  6         0.0000000000e+00
  7         8.4617461198e-02
  8         0.0000000000e+00
  9         0.0000000000e+00
 10         1.0186986272e+00
 11         0.0000000000e+00
 12         0.0000000000e+00
 13        -2.6186545018e+00
 14         0.0000000000e+00
 15         0.0000000000e+00
 16        -4.3041347441e-01
 17         0.0000000000e+00
 18         0.0000000000e+00
 19         0.0000000000e+00
 20        -9.6197160289e-02
 21         0.0000000000e+00
 22         0.0000000000e+00
 23         0.0000000000e+00
 24         0.0000000000e+00
 25         5.0434545825e-01
 26         0.0000000000e+00
 27         0.0000000000e+00
 28         0.0000000000e+00
 29         0.0000000000e+00
 30        -6.9746752568e-01
 31         0.0000000000e+00
 32         0.0000000000e+00
 33         0.0000000000e+00
 34         0.0000000000e+00
 35         5.7611233105e-02
 36         0.0000000000e+00
 37         0.0000000000e+00
 38         0.0000000000e+00
 39        -3.0794927229e-02
 40         0.0000000000e+00
 41         0.0000000000e+00
 42         6.0233502539e-01
 43         0.0000000000e+00
 44         0.0000000000e+00
 45         0.0000000000e+00
 46         6.4530855314e-01
 47         0.0000000000e+00
 48         0.0000000000e+00
 49         1.6386681700e-01
 50         0.0000000000e+00
 51         0.0000000000e+00
 52         0.0000000000e+00
 53         3.9687318225e-02
 54         0.0000000000e+00
 55         0.0000000000e+00
 56         1.3766524655e-01
 57        -1.0045427989e+00
 58         4.7128482357e-02
 59         5.4431860853e-02
 60         0.0000000000e+00
 61         1.6640507196e-01
 62        -2.2458973648e-02
 63         0.0000000000e+00
 64         1.3898575636e-01
 65         6.3291434259e-01
 66         0.0000000000e+00
 67         6.6872337678e-01
 68         2.6109982368e-01
 69         2.3019691857e-01
 70         0.0000000000e+00
 71        -8.1916139792e-02
 72         1.2089671591e-01
 73         0.0000000000e+00
 74        -8.6268844144e-01
 75         0.0000000000e+00
 76        -1.9258072013e-01
 77        -7.1344645009e-01
 78         0.0000000000e+00
 79         6.8441390026e-01
 80         0.0000000000e+00
 81        -1.2603050635e-01
 82         5.8593607504e-01
 83         0.0000000000e+00
 84         0.0000000000e+00
 85        -2.4627554412e-01
 86        -1.3766524655e-01
 87         1.0045427989e+00
 88        -4.7128482357e-02
 89        -5.4431860853e-02
 90         0.0000000000e+00
 91         1.6640507196e-01
 92         2.2458973648e-02
 93         0.0000000000e+00
 94         1.3898575636e-01
 95        -6.3291434259e-01
 96         0.0000000000e+00
 97         6.6872337678e-01
 98        -2.6109982368e-01
 99        -2.3019691857e-01
100         0.0000000000e+00
101        -8.1916139792e-02
102        -1.2089671591e-01
103         0.0000000000e+00
104         8.6268844144e-01
105         0.0000000000e+00
106        -1.9258072013e-01
107         7.1344645009e-01
108         0.0000000000e+00
109        -6.8441390026e-01
110         0.0000000000e+00
111        -1.2603050635e-01
112        -5.8593607504e-01
113         0.0000000000e+00
114         0.0000000000e+00
115        -2.4627554412e-01
 Sym= A1
 Ene=         7.5508001174e+00
 Spin= Alpha
 Occup=         0.0000000000e+00
  1         2.1594445388e-01
  2         4.6976908272e-01
  3         1.4063592892e+00
  4        -3.4224046559e-01
  5         1.0206730260e+00
  6         0.0000000000e+00
  7         0.0000000000e+00
  8         1.7290123242e-01
  9         0.0000000000e+00
 10         0.0000000000e+00
 11         4.2468924653e-01
 12         0.0000000000e+00
 13         0.0000000000e+00
 14        -1.7207757728e-01
 15         0.0000000000e+00
 16         0.0000000000e+00
 17         1.2484490484e-01
 18        -1.4596559752e-02
 19         0.0000000000e+00
 20         0.0000000000e+00
 21         3.5121877189e-02
 22         0.0000000000e+00
 23         3.4684933335e-01
 24         0.0000000000e+00
 25         0.0000000000e+00
 26        -6.6032894457e-02
 27         0.0000000000e+00
 28        -1.8200268327e-01
 29         0.0000000000e+00
 30         0.0000000000e+00
 31         1.8506063329e-01
 32         0.0000000000e+00
 33        -2.5242234730e-02
 34         0.0000000000e+00
 35         0.0000000000e+00
 36         3.0338755240e-02
 37         0.0000000000e+00
 38         0.0000000000e+00
 39         0.0000000000e+00
 40         4.1341175208e-02
 41         0.0000000000e+00
 42         0.0000000000e+00
 43        -1.0067522839e-01
 44         0.0000000000e+00
 45         0.0000000000e+00
 46         0.0000000000e+00
 47        -5.0627494256e-02
 48         0.0000000000e+00
 49         0.0000000000e+00
 50         3.1407807280e-02
 51         0.0000000000e+00
 52         0.0000000000e+00
 53         0.0000000000e+00
 54        -7.6409214206e-02
 55         0.0000000000e+00
 56         1.2208441406e-01
 57         1.3023614300e-01
 58        -4.8943817228e-01
 59        -1.4953438974e-01
 60         0.0000000000e+00
 61        -6.3889837775e-01
 62         2.0552430141e-01
 63         0.0000000000e+00
 64         6.1738984973e-01
 65        -1.7803527941e-01
 66         0.0000000000e+00
 67        -6.3949683406e-01
 68         3.8419465015e-01
 69        -4.1989267214e-02
 70         0.0000000000e+00
 71        -1.4332006006e-01
 72         4.3600672988e-02
 73         0.0000000000e+00
 74         7.7335855100e-02
 75         0.0000000000e+00
 76         3.9181532976e-01
 77         2.6494345230e-01
 78         0.0000000000e+00
 79        -2.7340598774e-01
 80         0.0000000000e+00
 81        -1.1160266547e-01
 82        -4.0233123995e-01
 83         0.0000000000e+00
 84         0.0000000000e+00
 85         4.2759382577e-01
 86         1.2208441406e-01
 87         1.3023614300e-01
 88        -4.8943817228e-01
 89        -1.4953438974e-01
 90         0.0000000000e+00
 91         6.3889837775e-01
 92         2.0552430141e-01
 93         0.0000000000e+00
 94        -6.1738984973e-01
 95        -1.7803527941e-01
 96         0.0000000000e+00
 97         6.3949683406e-01
 98         3.8419465015e-01
 99        -4.1989267214e-02
100         0.0000000000e+00
101         1.4332006006e-01
102         4.3600672988e-02
103         0.0000000000e+00
104         7.7335855100e-02
105         0.0000000000e+00
106        -3.9181532976e-01
107         2.6494345230e-01
108         0.0000000000e+00
109        -2.7340598774e-01
110         0.0000000000e+00
111         1.1160266547e-01
112        -4.0233123995e-01
113         0.0000000000e+00
114         0.0000000000e+00
115        -4.2759382577e-01
 Sym= A1
 Ene=         7.5703219076e+00
 Spin= Alpha
 Occup=         0.0000000000e+00
  1         1.3287226128e-01
  2         2.5764477736e-01
  3         9.4702096296e-01
  4        -1.2537781644e+00
  5        -1.8913194751e+00
  6         0.0000000000e+00
  7         0.0000000000e+00
  8        -1.1220594238e-01
  9         0.0000000000e+00
 10         0.0000000000e+00
 11         2.8384600179e-01
 12         0.0000000000e+00
 13         0.0000000000e+00
 14        -2.1496697876e+00
 15         0.0000000000e+00
 16         0.0000000000e+00
 17        -6.4318576831e-01
 18         4.6189420316e-02
 19         0.0000000000e+00
 20         0.0000000000e+00
 21         2.3299433760e-02
 22         0.0000000000e+00
 23        -8.6891713047e-01
 24         0.0000000000e+00
 25         0.0000000000e+00
 26        -4.8528982579e-01
 27         0.0000000000e+00
 28        -5.3163971900e-01
 29         0.0000000000e+00
 30         0.0000000000e+00
 31         1.5568861792e-01
 32         0.0000000000e+00
 33         2.9256153310e-02
 34         0.0000000000e+00
 35         0.0000000000e+00
 36         4.5756642406e-03
 37         0.0000000000e+00
 38         0.0000000000e+00
 39         0.0000000000e+00
 40        -1.5103438518e-01
 41         0.0000000000e+00
 42         0.0000000000e+00
 43         8.2656454624e-02
 44         0.0000000000e+00
 45         0.0000000000e+00
 46         0.0000000000e+00
 47         3.8730029016e-02
 48         0.0000000000e+00
 49         0.0000000000e+00
 50         1.0360083996e-01
 51         0.0000000000e+00
 52         0.0000000000e+00
 53         0.0000000000e+00
 54         2.1006399518e-02
 55         0.0000000000e+00
 56         6.7226014119e-03
 57         4.6784327699e-01
 58         1.1604567907e+00
 59        -1.1603407853e-02
 60         0.0000000000e+00
 61         2.3689456646e-01
 62         5.9831042626e-01
 63         0.0000000000e+00
 64         2.8799039448e-01
 65        -4.0894064860e-01
 66         0.0000000000e+00
 67         5.6598493060e-01
 68         2.8166292667e-01
 69         1.8176038801e-01
 70         0.0000000000e+00
 71        -1.2659490623e-01
 72        -1.9824120349e-02
 73         0.0000000000e+00
 74        -6.8865071533e-01
 75         0.0000000000e+00
 76         2.4222653768e-01
 77        -3.0198901418e-01
 78         0.0000000000e+00
 79         2.5294777519e-01
 80         0.0000000000e+00
 81        -6.9261441805e-01
 82        -9.2364681907e-02
 83         0.0000000000e+00
 84         0.0000000000e+00
 85        -1.4071192717e-01
 86         6.7226014119e-03
 87         4.6784327699e-01
 88         1.1604567907e+00
 89        -1.1603407853e-02
 90         0.0000000000e+00
 91        -2.3689456646e-01
 92         5.9831042626e-01
 93         0.0000000000e+00
 94        -2.8799039448e-01
 95        -4.0894064860e-01
 96         0.0000000000e+00
 97        -5.6598493060e-01
 98         2.8166292667e-01
 99         1.8176038801e-01
100         0.0000000000e+00
101         1.2659490623e-01
102        -1.9824120349e-02
103         0.0000000000e+00
104        -6.8865071533e-01
105         0.0000000000e+00
106        -2.4222653768e-01
107        -3.0198901418e-01
108         0.0000000000e+00
109         2.5294777519e-01
110         0.0000000000e+00
111         6.9261441805e-01
112        -9.2364681907e-02
113         0.0000000000e+00
114         0.0000000000e+00
115         1.4071192717e-01
 Sym= B1
 Ene=         7.9994301896e+00
 Spin= Alpha
 Occup=         0.0000000000e+00
  1         0.0000000000e+00
  2         0.0000000000e+00
  3         0.0000000000e+00
  4         0.0000000000e+00
  5         0.0000000000e+00
  6         2.0951247639e-02
  7         0.0000000000e+00
  8         0.0000000000e+00
  9        -9.2344017481e-03
 10         0.0000000000e+00
 11         0.0000000000e+00
 12        -1.5932674681e+00
 13         0.0000000000e+00
 14         0.0000000000e+00
 15        -2.3905297031e-01
 16         0.0000000000e+00
 17         0.0000000000e+00
 18         0.0000000000e+00
 19         1.2451422029e-02
 20         0.0000000000e+00
 21         0.0000000000e+00
 22         0.0000000000e+00
 23         0.0000000000e+00
 24        -3.6143953444e-01
 25         0.0000000000e+00
 26         0.0000000000e+00
 27         0.0000000000e+00
 28         0.0000000000e+00
 29        -6.0749460993e-01
 30         0.0000000000e+00
 31         0.0000000000e+00
 32         0.0000000000e+00
 33         0.0000000000e+00
 34        -2.6345774356e-03
 35         0.0000000000e+00
 36         0.0000000000e+00
 37         0.0000000000e+00
 38         9.6039421128e-02
 39         0.0000000000e+00
 40         0.0000000000e+00
 41        -1.1268877396e-01
 42         0.0000000000e+00
 43         0.0000000000e+00
 44         0.0000000000e+00
 45         3.1621803242e-01
 46         0.0000000000e+00
 47         0.0000000000e+00
 48         1.3532988689e-01
 49         0.0000000000e+00
 50         0.0000000000e+00
 51         0.0000000000e+00
 52         3.2916924341e-01
 53         0.0000000000e+00
 54         0.0000000000e+00
 55         0.0000000000e+00
 56         0.0000000000e+00
 57         0.0000000000e+00
 58         0.0000000000e+00
 59         0.0000000000e+00
 60        -2.9454285804e-01
 61         0.0000000000e+00
 62         0.0000000000e+00
 63         7.5657912923e-01
 64         0.0000000000e+00
 65         0.0000000000e+00
 66         4.0553058794e-01
 67         0.0000000000e+00
 68         0.0000000000e+00
 69         0.0000000000e+00
 70         7.2693090969e-01
 71         0.0000000000e+00
 72         0.0000000000e+00
 73         9.5262016951e-03
 74         0.0000000000e+00
 75        -8.0390267774e-01
 76         0.0000000000e+00
 77         0.0000000000e+00
 78         5.7503278097e-01
 79         0.0000000000e+00
 80         1.1086793817e-01
 81         0.0000000000e+00
 82         0.0000000000e+00
 83        -3.8162652168e-01
 84        -1.9292620319e-01
 85         0.0000000000e+00
 86         0.0000000000e+00
 87         0.0000000000e+00
 88         0.0000000000e+00
 89         0.0000000000e+00
 90        -2.9454285804e-01
 91         0.0000000000e+00
 92         0.0000000000e+00
 93         7.5657912923e-01
 94         0.0000000000e+00
 95         0.0000000000e+00
 96         4.0553058794e-01
 97         0.0000000000e+00
 98         0.0000000000e+00
 99         0.0000000000e+00
100         7.2693090969e-01
101         0.0000000000e+00
102         0.0000000000e+00
103        -9.5262016951e-03
104         0.0000000000e+00
105        -8.0390267774e-01
106         0.0000000000e+00
107         0.0000000000e+00
108        -5.7503278097e-01
109         0.0000000000e+00
110         1.1086793817e-01
111         0.0000000000e+00
112         0.0000000000e+00
113         3.8162652168e-01
114        -1.9292620319e-01
115         0.0000000000e+00
 Sym= B2
 Ene=         8.0753002112e+00
 Spin= Alpha
 Occup=         0.0000000000e+00
  1         0.0000000000e+00
  2         0.0000000000e+00
  3         0.0000000000e+00
  4         0.0000000000e+00
  5         0.0000000000e+00
  6         0.0000000000e+00
  7         7.0639070198e-02
  8         0.0000000000e+00
  9         0.0000000000e+00
 10         5.8840499091e-01
 11         0.0000000000e+00
 12         0.0000000000e+00
 13        -9.5688085226e-01
 14         0.0000000000e+00
 15         0.0000000000e+00
 16        -7.1624938889e-01
 17         0.0000000000e+00
 18         0.0000000000e+00
 19         0.0000000000e+00
 20        -1.1049476689e-01
 21         0.0000000000e+00
 22         0.0000000000e+00
 23         0.0000000000e+00
 24         0.0000000000e+00
 25        -1.9855822641e-03
 26         0.0000000000e+00
 27         0.0000000000e+00
 28         0.0000000000e+00
 29         0.0000000000e+00
 30        -9.2063473360e-01
 31         0.0000000000e+00
 32         0.0000000000e+00
 33         0.0000000000e+00
 34         0.0000000000e+00
 35         6.7158383510e-03
 36         0.0000000000e+00
 37         0.0000000000e+00
 38         0.0000000000e+00
 39        -1.0174767501e-01
 40         0.0000000000e+00
 41         0.0000000000e+00
 42        -3.8685755555e-01
 43         0.0000000000e+00
 44         0.0000000000e+00
 45         0.0000000000e+00
 46         1.0325195053e-01
 47         0.0000000000e+00
 48         0.0000000000e+00
 49        -2.0519934776e-01
 50         0.0000000000e+00
 51         0.0000000000e+00
 52         0.0000000000e+00
 53        -2.1103738827e-01
 54         0.0000000000e+00
 55         0.0000000000e+00
 56         3.7799498823e-01
 57        -1.0028201985e+00
 58        -9.6057524274e-01
 59        -3.5581174459e-01
 60         0.0000000000e+00
 61        -2.2611876156e-01
 62         6.0798731881e-01
 63         0.0000000000e+00
 64        -1.2370205843e-01
 65        -6.6174779601e-01
 66         0.0000000000e+00
 67        -6.7176515825e-01
 68         4.1875649749e-01
 69        -3.2303982145e-01
 70         0.0000000000e+00
 71        -4.2278384252e-01
 72        -1.3271313550e-01
 73         0.0000000000e+00
 74         4.9957725449e-01
 75         0.0000000000e+00
 76         8.6191533955e-02
 77         2.7149157118e-01
 78         0.0000000000e+00
 79         9.0477784581e-03
 80         0.0000000000e+00
 81         3.4880391426e-01
 82         1.3366525689e-01
 83         0.0000000000e+00
 84         0.0000000000e+00
 85         3.7327631471e-02
 86        -3.7799498823e-01
 87         1.0028201985e+00
 88         9.6057524274e-01
 89         3.5581174459e-01
 90         0.0000000000e+00
 91        -2.2611876156e-01
 92        -6.0798731881e-01
 93         0.0000000000e+00
 94        -1.2370205843e-01
 95         6.6174779601e-01
 96         0.0000000000e+00
 97        -6.7176515825e-01
 98        -4.1875649749e-01
 99         3.2303982145e-01
100         0.0000000000e+00
101        -4.2278384252e-01
102         1.3271313550e-01
103         0.0000000000e+00
104        -4.9957725449e-01
105         0.0000000000e+00
106         8.6191533955e-02
107        -2.7149157118e-01
108         0.0000000000e+00
109        -9.0477784581e-03
110         0.0000000000e+00
111         3.4880391426e-01
112        -1.3366525689e-01
113         0.0000000000e+00
114         0.0000000000e+00
115         3.7327631471e-02
 Sym= B1
 Ene=         8.0991529014e+00
 Spin= Alpha
 Occup=         0.0000000000e+00
  1         0.0000000000e+00
  2         0.0000000000e+00
  3         0.0000000000e+00
  4         0.0000000000e+00
  5         0.0000000000e+00
  6         6.5706425971e-02
  7         0.0000000000e+00
  8         0.0000000000e+00
  9        -3.4839729465e-02
 10         0.0000000000e+00
 11         0.0000000000e+00
 12        -1.4375422384e+00
 13         0.0000000000e+00
 14         0.0000000000e+00
 15        -2.1383176504e-01
 16         0.0000000000e+00
 17         0.0000000000e+00
 18         0.0000000000e+00
 19         5.1907369445e-02
 20         0.0000000000e+00
 21         0.0000000000e+00
 22         0.0000000000e+00
 23         0.0000000000e+00
 24        -2.2297670894e-01
 25         0.0000000000e+00
 26         0.0000000000e+00
 27         0.0000000000e+00
 28         0.0000000000e+00
 29        -7.8853126927e-01
 30         0.0000000000e+00
 31         0.0000000000e+00
 32         0.0000000000e+00
 33         0.0000000000e+00
 34        -7.8089718674e-02
 35         0.0000000000e+00
 36         0.0000000000e+00
 37         0.0000000000e+00
 38         6.4755217384e-02
 39         0.0000000000e+00
 40         0.0000000000e+00
 41        -7.0681157381e-02
 42         0.0000000000e+00
 43         0.0000000000e+00
 44         0.0000000000e+00
 45         3.1206696442e-01
 46         0.0000000000e+00
 47         0.0000000000e+00
 48        -1.8461939385e-01
 49         0.0000000000e+00
 50         0.0000000000e+00
 51         0.0000000000e+00
 52         2.6971372167e-01
 53         0.0000000000e+00
 54         0.0000000000e+00
 55         0.0000000000e+00
 56         0.0000000000e+00
 57         0.0000000000e+00
 58         0.0000000000e+00
 59         0.0000000000e+00
 60        -3.8820470425e-01
 61         0.0000000000e+00
 62         0.0000000000e+00
 63         8.3078212475e-01
 64         0.0000000000e+00
 65         0.0000000000e+00
 66         3.1873099095e-01
 67         0.0000000000e+00
 68         0.0000000000e+00
 69         0.0000000000e+00
 70        -1.8593384033e-01
 71         0.0000000000e+00
 72         0.0000000000e+00
 73        -7.1361185747e-01
 74         0.0000000000e+00
 75        -2.9830325516e-01
 76         0.0000000000e+00
 77         0.0000000000e+00
 78         8.6997707986e-01
 79         0.0000000000e+00
 80         7.6787871485e-02
 81         0.0000000000e+00
 82         0.0000000000e+00
 83        -2.9513989718e-01
 84        -1.7923478846e-01
 85         0.0000000000e+00
 86         0.0000000000e+00
 87         0.0000000000e+00
 88         0.0000000000e+00
 89         0.0000000000e+00
 90        -3.8820470425e-01
 91         0.0000000000e+00
 92         0.0000000000e+00
 93         8.3078212475e-01
 94         0.0000000000e+00
 95         0.0000000000e+00
 96         3.1873099095e-01
 97         0.0000000000e+00
 98         0.0000000000e+00
 99         0.0000000000e+00
100        -1.8593384033e-01
101         0.0000000000e+00
102         0.0000000000e+00
103         7.1361185747e-01
104         0.0000000000e+00
105        -2.9830325516e-01
106         0.0000000000e+00
107         0.0000000000e+00
108        -8.6997707986e-01
109         0.0000000000e+00
110         7.6787871485e-02
111         0.0000000000e+00
112         0.0000000000e+00
113         2.9513989718e-01
114        -1.7923478846e-01
115         0.0000000000e+00
 Sym= A1
 Ene=         8.1500846405e+00
 Spin= Alpha
 Occup=         0.0000000000e+00
  1         9.6124519551e-03
  2         3.1986557109e-02
  3         3.3607091705e-02
  4         4.3722418582e-02
  5        -4.0659093237e-01
  6         0.0000000000e+00
  7         0.0000000000e+00
  8         1.3876754813e-01
  9         0.0000000000e+00
 10         0.0000000000e+00
 11        -3.5018848615e-02
 12         0.0000000000e+00
 13         0.0000000000e+00
 14         7.6536069992e-01
 15         0.0000000000e+00
 16         0.0000000000e+00
 17        -2.0372394065e-01
 18        -4.7806357070e-02
 19         0.0000000000e+00
 20         0.0000000000e+00
 21         1.7743045631e-02
 22         0.0000000000e+00
 23         5.2091202913e-01
 24         0.0000000000e+00
 25         0.0000000000e+00
 26         2.2946957401e-01
 27         0.0000000000e+00
 28         3.7522595350e-01
 29         0.0000000000e+00
 30         0.0000000000e+00
 31        -5.5436592883e-02
 32         0.0000000000e+00
 33         2.8443624302e-02
 34         0.0000000000e+00
 35         0.0000000000e+00
 36        -1.0685738376e-02
 37         0.0000000000e+00
 38         0.0000000000e+00
 39         0.0000000000e+00
 40         1.2791127161e-01
 41         0.0000000000e+00
 42         0.0000000000e+00
 43        -1.2502864766e-01
 44         0.0000000000e+00
 45         0.0000000000e+00
 46         0.0000000000e+00
 47         1.8379503268e-01
 48         0.0000000000e+00
 49         0.0000000000e+00
 50        -1.1392439560e-01
 51         0.0000000000e+00
 52         0.0000000000e+00
 53         0.0000000000e+00
 54         5.8590652280e-02
 55         0.0000000000e+00
 56         4.8583135921e-02
 57        -3.4843670110e-01
 58         4.0785184465e-01
 59        -1.9309701192e-02
 60         0.0000000000e+00
 61         1.6496209845e-01
 62         3.5655571053e-01
 63         0.0000000000e+00
 64        -3.7650679015e-01
 65        -4.7572494572e-01
 66         0.0000000000e+00
 67         8.3484608610e-02
 68        -8.0571495392e-02
 69         3.5478268957e-01
 70         0.0000000000e+00
 71         4.1854193390e-01
 72        -4.7932084246e-01
 73         0.0000000000e+00
 74         1.0618368193e-01
 75         0.0000000000e+00
 76        -3.2551342307e-01
 77         4.6176049278e-01
 78         0.0000000000e+00
 79        -1.2758242190e-01
 80         0.0000000000e+00
 81         2.7679453860e-01
 82        -1.0268760932e-01
 83         0.0000000000e+00
 84         0.0000000000e+00
 85         2.3838378751e-01
 86         4.8583135921e-02
 87        -3.4843670110e-01
 88         4.0785184465e-01
 89        -1.9309701192e-02
 90         0.0000000000e+00
 91        -1.6496209845e-01
 92         3.5655571053e-01
 93         0.0000000000e+00
 94         3.7650679015e-01
 95        -4.7572494572e-01
 96         0.0000000000e+00
 97        -8.3484608610e-02
 98        -8.0571495392e-02
 99         3.5478268957e-01
100         0.0000000000e+00
101        -4.1854193390e-01
102        -4.7932084246e-01
103         0.0000000000e+00
104         1.0618368193e-01
105         0.0000000000e+00
106         3.2551342307e-01
107         4.6176049278e-01
108         0.0000000000e+00
109        -1.2758242190e-01
110         0.0000000000e+00
111        -2.7679453860e-01
112        -1.0268760932e-01
113         0.0000000000e+00
114         0.0000000000e+00
115        -2.3838378751e-01
 Sym= A2
 Ene=         8.1535102923e+00
 Spin= Alpha
 Occup=         0.0000000000e+00
  1         0.0000000000e+00
  2         0.0000000000e+00
  3         0.0000000000e+00
  4         0.0000000000e+00
  5         0.0000000000e+00
  6         0.0000000000e+00
  7         0.0000000000e+00
  8         0.0000000000e+00
  9         0.0000000000e+00
 10         0.0000000000e+00
 11         0.0000000000e+00
 12         0.0000000000e+00
 13         0.0000000000e+00
 14         0.0000000000e+00
 15         0.0000000000e+00
 16         0.0000000000e+00
 17         0.0000000000e+00
 18         0.0000000000e+00
 19         0.0000000000e+00
 20         0.0000000000e+00
 21         0.0000000000e+00
 22         6.0695162159e-02
 23         0.0000000000e+00
 24         0.0000000000e+00
 25         0.0000000000e+00
 26         0.0000000000e+00
 27        -5.9205462960e-01
 28         0.0000000000e+00
 29         0.0000000000e+00
 30         0.0000000000e+00
 31         0.0000000000e+00
 32        -1.1678344168e+00
 33         0.0000000000e+00
 34         0.0000000000e+00
 35         0.0000000000e+00
 36         0.0000000000e+00
 37        -1.3063052723e-01
 38         0.0000000000e+00
 39         0.0000000000e+00
 40         0.0000000000e+00
 41         0.0000000000e+00
 42         0.0000000000e+00
 43         0.0000000000e+00
 44        -5.3000656068e-01
 45         0.0000000000e+00
 46         0.0000000000e+00
 47         0.0000000000e+00
 48         0.0000000000e+00
 49         0.0000000000e+00
 50         0.0000000000e+00
 51        -2.8893453381e-01
 52         0.0000000000e+00
 53         0.0000000000e+00
 54         0.0000000000e+00
 55         3.2031749837e-01
 56         0.0000000000e+00
 57         0.0000000000e+00
 58         0.0000000000e+00
 59         0.0000000000e+00
 60         5.7004884796e-01
 61         0.0000000000e+00
 62         0.0000000000e+00
 63        -1.1583025453e+00
 64         0.0000000000e+00
 65         0.0000000000e+00
 66        -4.6845939352e-01
 67         0.0000000000e+00
 68         0.0000000000e+00
 69         0.0000000000e+00
 70        -3.8021833209e-01
 71         0.0000000000e+00
 72         0.0000000000e+00
 73         4.3612958844e-01
 74         0.0000000000e+00
 75         7.8944777174e-01
 76         0.0000000000e+00
 77         0.0000000000e+00
 78        -9.8416319331e-01
 79         0.0000000000e+00
 80        -1.3543392211e-01
 81         0.0000000000e+00
 82         0.0000000000e+00
 83         3.5948315626e-01
 84         4.7214103816e-01
 85         0.0000000000e+00
 86         0.0000000000e+00
 87         0.0000000000e+00
 88         0.0000000000e+00
 89         0.0000000000e+00
 90        -5.7004884796e-01
 91         0.0000000000e+00
 92         0.0000000000e+00
 93         1.1583025453e+00
 94         0.0000000000e+00
 95         0.0000000000e+00
 96         4.6845939352e-01
 97         0.0000000000e+00
 98         0.0000000000e+00
 99         0.0000000000e+00
100         3.8021833209e-01
101         0.0000000000e+00
102         0.0000000000e+00
103         4.3612958844e-01
104         0.0000000000e+00
105        -7.8944777174e-01
106         0.0000000000e+00
107         0.0000000000e+00
108        -9.8416319331e-01
109         0.0000000000e+00
110         1.3543392211e-01
111         0.0000000000e+00
112         0.0000000000e+00
113         3.5948315626e-01
114        -4.7214103816e-01
115         0.0000000000e+00
 Sym= B2
 Ene=         8.2792258098e+00
 Spin= Alpha
 Occup=         0.0000000000e+00
  1         0.0000000000e+00
  2         0.0000000000e+00
  3         0.0000000000e+00
  4         0.0000000000e+00
  5         0.0000000000e+00
  6         0.0000000000e+00
  7         4.3833837070e-03
  8         0.0000000000e+00
  9         0.0000000000e+00
 10         7.1625657571e-02
 11         0.0000000000e+00
 12         0.0000000000e+00
 13        -2.0232322191e+00
 14         0.0000000000e+00
 15         0.0000000000e+00
 16        -8.1614957516e-01
 17         0.0000000000e+00
 18         0.0000000000e+00
 19         0.0000000000e+00
 20        -8.4039169959e-02
 21         0.0000000000e+00
 22         0.0000000000e+00
 23         0.0000000000e+00
 24         0.0000000000e+00
 25        -2.7871419040e-01
 26         0.0000000000e+00
 27         0.0000000000e+00
 28         0.0000000000e+00
 29         0.0000000000e+00
 30        -6.1620542044e-01
 31         0.0000000000e+00
 32         0.0000000000e+00
 33         0.0000000000e+00
 34         0.0000000000e+00
 35         2.7191843228e-02
 36         0.0000000000e+00
 37         0.0000000000e+00
 38         0.0000000000e+00
 39         1.6074074019e-02
 40         0.0000000000e+00
 41         0.0000000000e+00
 42        -2.4389347419e-01
 43         0.0000000000e+00
 44         0.0000000000e+00
 45         0.0000000000e+00
 46         1.0525314317e-01
 47         0.0000000000e+00
 48         0.0000000000e+00
 49        -1.0240402222e-02
 50         0.0000000000e+00
 51         0.0000000000e+00
 52         0.0000000000e+00
 53         1.0661931190e-01
 54         0.0000000000e+00
 55         0.0000000000e+00
 56         3.0179862767e-01
 57        -9.1721691081e-01
 58        -2.0903674238e+00
 59        -3.4659479919e-01
 60         0.0000000000e+00
 61        -3.3569187013e-01
 62         4.2487174292e-02
 63         0.0000000000e+00
 64        -1.7968531129e-01
 65         3.1070542999e-01
 66         0.0000000000e+00
 67        -1.2043596221e+00
 68         6.3766916184e-01
 69         4.5712093265e-01
 70         0.0000000000e+00
 71         1.1260991165e-01
 72        -6.3509511999e-01
 73         0.0000000000e+00
 74        -2.5015964781e-01
 75         0.0000000000e+00
 76         2.6216981692e-01
 77         6.4335381366e-01
 78         0.0000000000e+00
 79         1.4597261766e-02
 80         0.0000000000e+00
 81        -9.8039700730e-02
 82        -6.1749868043e-02
 83         0.0000000000e+00
 84         0.0000000000e+00
 85         5.6498907537e-02
 86        -3.0179862767e-01
 87         9.1721691081e-01
 88         2.0903674238e+00
 89         3.4659479919e-01
 90         0.0000000000e+00
 91        -3.3569187013e-01
 92        -4.2487174292e-02
 93         0.0000000000e+00
 94        -1.7968531129e-01
 95        -3.1070542999e-01
 96         0.0000000000e+00
 97        -1.2043596221e+00
 98        -6.3766916184e-01
 99        -4.5712093265e-01
100         0.0000000000e+00
101         1.1260991165e-01
102         6.3509511999e-01
103         0.0000000000e+00
104         2.5015964781e-01
105         0.0000000000e+00
106         2.6216981692e-01
107        -6.4335381366e-01
108         0.0000000000e+00
109        -1.4597261766e-02
110         0.0000000000e+00
111        -9.8039700730e-02
112         6.1749868043e-02
113         0.0000000000e+00
114         0.0000000000e+00
115         5.6498907537e-02
 Sym= A2
 Ene=         8.3258915418e+00
 Spin= Alpha
 Occup=         0.0000000000e+00
  1         0.0000000000e+00
  2         0.0000000000e+00
  3         0.0000000000e+00
  4         0.0000000000e+00
  5         0.0000000000e+00
  6         0.0000000000e+00
  7         0.0000000000e+00
  8         0.0000000000e+00
  9         0.0000000000e+00
 10         0.0000000000e+00
 11         0.0000000000e+00
 12         0.0000000000e+00
 13         0.0000000000e+00
 14         0.0000000000e+00
 15         0.0000000000e+00
 16         0.0000000000e+00
 17         0.0000000000e+00
 18         0.0000000000e+00
 19         0.0000000000e+00
 20         0.0000000000e+00
 21         0.0000000000e+00
 22         1.5667502159e-02
 23         0.0000000000e+00
 24         0.0000000000e+00
 25         0.0000000000e+00
 26         0.0000000000e+00
 27         1.1835848335e-01
 28         0.0000000000e+00
 29         0.0000000000e+00
 30         0.0000000000e+00
 31         0.0000000000e+00
 32        -2.8400833722e-01
 33         0.0000000000e+00
 34         0.0000000000e+00
 35         0.0000000000e+00
 36         0.0000000000e+00
 37        -2.3911101658e-02
 38         0.0000000000e+00
 39         0.0000000000e+00
 40         0.0000000000e+00
 41         0.0000000000e+00
 42         0.0000000000e+00
 43         0.0000000000e+00
 44         8.8220697802e-02
 45         0.0000000000e+00
 46         0.0000000000e+00
 47         0.0000000000e+00
 48         0.0000000000e+00
 49         0.0000000000e+00
 50         0.0000000000e+00
 51         1.6679384622e-01
 52         0.0000000000e+00
 53         0.0000000000e+00
 54         0.0000000000e+00
 55         9.9689766789e-02
 56         0.0000000000e+00
 57         0.0000000000e+00
 58         0.0000000000e+00
 59         0.0000000000e+00
 60         3.1511117122e-02
 61         0.0000000000e+00
 62         0.0000000000e+00
 63        -3.8051644761e-02
 64         0.0000000000e+00
 65         0.0000000000e+00
 66         2.5765540162e-02
 67         0.0000000000e+00
 68         0.0000000000e+00
 69         0.0000000000e+00
 70        -6.9112825268e-01
 71         0.0000000000e+00
 72         0.0000000000e+00
 73        -4.9677490760e-01
 74         0.0000000000e+00
 75         4.5829634185e-01
 76         0.0000000000e+00
 77         0.0000000000e+00
 78         4.2368984674e-01
 79         0.0000000000e+00
 80        -1.4869099468e-01
 81         0.0000000000e+00
 82         0.0000000000e+00
 83         3.6413539442e-02
 84        -2.5767398128e-01
 85         0.0000000000e+00
 86         0.0000000000e+00
 87         0.0000000000e+00
 88         0.0000000000e+00
 89         0.0000000000e+00
 90        -3.1511117122e-02
 91         0.0000000000e+00
 92         0.0000000000e+00
 93         3.8051644761e-02
 94         0.0000000000e+00
 95         0.0000000000e+00
 96        -2.5765540162e-02
 97         0.0000000000e+00
 98         0.0000000000e+00
 99         0.0000000000e+00
100         6.9112825268e-01
101         0.0000000000e+00
102         0.0000000000e+00
103        -4.9677490760e-01
104         0.0000000000e+00
105        -4.5829634185e-01
106         0.0000000000e+00
107         0.0000000000e+00
108         4.2368984674e-01
109         0.0000000000e+00
110         1.4869099468e-01
111         0.0000000000e+00
112         0.0000000000e+00
113         3.6413539442e-02
114         2.5767398128e-01
115         0.0000000000e+00
 Sym= A1
 Ene=         8.3597651689e+00
 Spin= Alpha
 Occup=         0.0000000000e+00
  1         1.7560360187e-01
  2         3.8276801517e-01
  3         1.3484495561e+00
  4        -2.2532204906e+00
  5        -2.4312941903e+00
  6         0.0000000000e+00
  7         0.0000000000e+00
  8         4.5389775597e-02
  9         0.0000000000e+00
 10         0.0000000000e+00
 11         3.0484939693e-01
 12         0.0000000000e+00
 13         0.0000000000e+00
 14         2.1133235678e-01
 15         0.0000000000e+00
 16         0.0000000000e+00
 17        -2.0578885223e-01
 18        -5.8040256208e-02
 19         0.0000000000e+00
 20         0.0000000000e+00
 21         4.0404757574e-02
 22         0.0000000000e+00
 23         5.0709204365e-01
 24         0.0000000000e+00
 25         0.0000000000e+00
 26         3.1416261256e-01
 27         0.0000000000e+00
 28         1.2810466982e+00
 29         0.0000000000e+00
 30         0.0000000000e+00
 31         1.4676942689e+00
 32         0.0000000000e+00
 33         3.0795043165e-02
 34         0.0000000000e+00
 35         0.0000000000e+00
 36        -4.8261000174e-02
 37         0.0000000000e+00
 38         0.0000000000e+00
 39         0.0000000000e+00
 40         3.4854372808e-01
 41         0.0000000000e+00
 42         0.0000000000e+00
 43         3.2106826101e-01
 44         0.0000000000e+00
 45         0.0000000000e+00
 46         0.0000000000e+00
 47        -4.5419862565e-02
 48         0.0000000000e+00
 49         0.0000000000e+00
 50        -2.6932117461e-01
 51         0.0000000000e+00
 52         0.0000000000e+00
 53         0.0000000000e+00
 54        -1.4103514316e-01
 55         0.0000000000e+00
 56        -2.5803198527e-01
 57         8.8850891105e-01
 58         1.3227126005e+00
 59         1.2408761503e-01
 60         0.0000000000e+00
 61         6.4969327846e-01
 62         4.3561017466e-01
 63         0.0000000000e+00
 64        -7.6239566224e-01
 65        -1.2065031855e+00
 66         0.0000000000e+00
 67         3.2853622568e-01
 68        -8.3503131815e-01
 69        -4.6786874225e-01
 70         0.0000000000e+00
 71         1.3803699779e-01
 72         2.1181025892e-01
 73         0.0000000000e+00
 74         1.0629518942e+00
 75         0.0000000000e+00
 76        -2.9738110348e-01
 77         2.0129465393e-01
 78         0.0000000000e+00
 79        -3.7287434840e-01
 80         0.0000000000e+00
 81         2.4611744285e-01
 82        -2.1952517938e-01
 83         0.0000000000e+00
 84         0.0000000000e+00
 85         1.4481934969e-01
 86        -2.5803198527e-01
 87         8.8850891105e-01
 88         1.3227126005e+00
 89         1.2408761503e-01
 90         0.0000000000e+00
 91        -6.4969327846e-01
 92         4.3561017466e-01
 93         0.0000000000e+00
 94         7.6239566224e-01
 95        -1.2065031855e+00
 96         0.0000000000e+00
 97        -3.2853622568e-01
 98        -8.3503131815e-01
 99        -4.6786874225e-01
100         0.0000000000e+00
101        -1.3803699779e-01
102         2.1181025892e-01
103         0.0000000000e+00
104         1.0629518942e+00
105         0.0000000000e+00
106         2.9738110348e-01
107         2.0129465393e-01
108         0.0000000000e+00
109        -3.7287434840e-01
110         0.0000000000e+00
111        -2.4611744285e-01
112        -2.1952517938e-01
113         0.0000000000e+00
114         0.0000000000e+00
115        -1.4481934969e-01
 Sym= A1
 Ene=         8.4322388084e+00
 Spin= Alpha
 Occup=         0.0000000000e+00
  1         1.9722474643e-01
  2         4.5900100581e-01
  3         1.8346227772e+00
  4        -4.1309388927e+00
  5        -3.0883323377e+00
  6         0.0000000000e+00
  7         0.0000000000e+00
  8         1.7992952149e-01
  9         0.0000000000e+00
 10         0.0000000000e+00
 11         2.6617604711e-01
 12         0.0000000000e+00
 13         0.0000000000e+00
 14        -3.1727315855e+00
 15         0.0000000000e+00
 16         0.0000000000e+00
 17        -7.6977101497e-01
 18         2.1856631318e-02
 19         0.0000000000e+00
 20         0.0000000000e+00
 21         1.4859769654e-01
 22         0.0000000000e+00
 23        -2.4880095916e-01
 24         0.0000000000e+00
 25         0.0000000000e+00
 26        -4.7954753974e-02
 27         0.0000000000e+00
 28        -8.3224745181e-01
 29         0.0000000000e+00
 30         0.0000000000e+00
 31         2.5555214564e-01
 32         0.0000000000e+00
 33        -8.3901494550e-02
 34         0.0000000000e+00
 35         0.0000000000e+00
 36        -4.7400986261e-02
 37         0.0000000000e+00
 38         0.0000000000e+00
 39         0.0000000000e+00
 40         1.2432375086e-01
 41         0.0000000000e+00
 42         0.0000000000e+00
 43         3.7365714993e-01
 44         0.0000000000e+00
 45         0.0000000000e+00
 46         0.0000000000e+00
 47        -6.1025900228e-02
 48         0.0000000000e+00
 49         0.0000000000e+00
 50         1.0930048308e-01
 51         0.0000000000e+00
 52         0.0000000000e+00
 53         0.0000000000e+00
 54         1.2396409848e-01
 55         0.0000000000e+00
 56        -4.6078347039e-01
 57         1.6486066910e+00
 58         1.8602116606e+00
 59         1.4314706945e-01
 60         0.0000000000e+00
 61        -4.7724868820e-03
 62        -4.2185933187e-01
 63         0.0000000000e+00
 64         9.1088570359e-01
 65         1.0330296814e-01
 66         0.0000000000e+00
 67         9.9909867726e-01
 68        -4.1019986571e-01
 69         3.4606324678e-01
 70         0.0000000000e+00
 71         3.7234240401e-01
 72         3.9360475520e-01
 73         0.0000000000e+00
 74        -6.1125732956e-01
 75         0.0000000000e+00
 76        -3.8346002224e-01
 77        -5.8692408008e-01
 78         0.0000000000e+00
 79         1.3173577285e-01
 80         0.0000000000e+00
 81        -2.6743539343e-01
 82        -1.2514968995e-01
 83         0.0000000000e+00
 84         0.0000000000e+00
 85         2.1522322474e-02
 86        -4.6078347039e-01
 87         1.6486066910e+00
 88         1.8602116606e+00
 89         1.4314706945e-01
 90         0.0000000000e+00
 91         4.7724868820e-03
 92        -4.2185933187e-01
 93         0.0000000000e+00
 94        -9.1088570359e-01
 95         1.0330296814e-01
 96         0.0000000000e+00
 97        -9.9909867726e-01
 98        -4.1019986571e-01
 99         3.4606324678e-01
100         0.0000000000e+00
101        -3.7234240401e-01
102         3.9360475520e-01
103         0.0000000000e+00
104        -6.1125732956e-01
105         0.0000000000e+00
106         3.8346002224e-01
107        -5.8692408008e-01
108         0.0000000000e+00
109         1.3173577285e-01
110         0.0000000000e+00
111         2.6743539343e-01
112        -1.2514968995e-01
113         0.0000000000e+00
114         0.0000000000e+00
115        -2.1522322474e-02
 Sym= B2
 Ene=         8.6078974957e+00
 Spin= Alpha
 Occup=         0.0000000000e+00
  1         0.0000000000e+00
  2         0.0000000000e+00
  3         0.0000000000e+00
  4         0.0000000000e+00
  5         0.0000000000e+00
  6         0.0000000000e+00
  7         2.1159415193e-01
  8         0.0000000000e+00
  9         0.0000000000e+00
 10        -7.4917287129e-01
 11         0.0000000000e+00
 12         0.0000000000e+00
 13        -4.5059934062e-01
 14         0.0000000000e+00
 15         0.0000000000e+00
 16        -6.6287521138e-01
 17         0.0000000000e+00
 18         0.0000000000e+00
 19         0.0000000000e+00
 20        -2.6071527685e-02
 21         0.0000000000e+00
 22         0.0000000000e+00
 23         0.0000000000e+00
 24         0.0000000000e+00
 25        -2.0485805518e-01
 26         0.0000000000e+00
 27         0.0000000000e+00
 28         0.0000000000e+00
 29         0.0000000000e+00
 30        -3.0465749030e-01
 31         0.0000000000e+00
 32         0.0000000000e+00
 33         0.0000000000e+00
 34         0.0000000000e+00
 35         7.2995102986e-02
 36         0.0000000000e+00
 37         0.0000000000e+00
 38         0.0000000000e+00
 39         1.2268605114e-01
 40         0.0000000000e+00
 41         0.0000000000e+00
 42        -4.6102954755e-01
 43         0.0000000000e+00
 44         0.0000000000e+00
 45         0.0000000000e+00
 46        -4.8165978913e-01
 47         0.0000000000e+00
 48         0.0000000000e+00
 49         1.8220646835e-01
 50         0.0000000000e+00
 51         0.0000000000e+00
 52         0.0000000000e+00
 53         9.6528724308e-02
 54         0.0000000000e+00
 55         0.0000000000e+00
 56         1.9389019441e-01
 57        -4.2659926100e-01
 58        -9.6303028550e-01
 59        -1.3968562650e-01
 60         0.0000000000e+00
 61         2.5860482144e-01
 62         1.4892392056e-01
 63         0.0000000000e+00
 64        -7.3556075314e-01
 65        -1.7078437579e-01
 66         0.0000000000e+00
 67        -1.8412749046e-01
 68         7.3696834381e-01
 69         3.9592094282e-01
 70         0.0000000000e+00
 71        -5.8721975126e-01
 72         2.3971616453e-01
 73         0.0000000000e+00
 74        -9.8767517577e-02
 75         0.0000000000e+00
 76         9.3533286900e-01
 77        -1.1172608867e-02
 78         0.0000000000e+00
 79        -3.9676939290e-01
 80         0.0000000000e+00
 81        -1.6495879204e-01
 82        -3.2025640886e-01
 83         0.0000000000e+00
 84         0.0000000000e+00
 85        -6.0448805136e-02
 86        -1.9389019441e-01
 87         4.2659926100e-01
 88         9.6303028550e-01
 89         1.3968562650e-01
 90         0.0000000000e+00
 91         2.5860482144e-01
 92        -1.4892392056e-01
 93         0.0000000000e+00
 94        -7.3556075314e-01
 95         1.7078437579e-01
 96         0.0000000000e+00
 97        -1.8412749046e-01
 98        -7.3696834381e-01
 99        -3.9592094282e-01
100         0.0000000000e+00
101        -5.8721975126e-01
102        -2.3971616453e-01
103         0.0000000000e+00
104         9.8767517577e-02
105         0.0000000000e+00
106         9.3533286900e-01
107         1.1172608867e-02
108         0.0000000000e+00
109         3.9676939290e-01
110         0.0000000000e+00
111        -1.6495879204e-01
112         3.2025640886e-01
113         0.0000000000e+00
114         0.0000000000e+00
115        -6.0448805136e-02
 Sym= B1
 Ene=         8.8415696700e+00
 Spin= Alpha
 Occup=         0.0000000000e+00
  1         0.0000000000e+00
  2         0.0000000000e+00
  3         0.0000000000e+00
  4         0.0000000000e+00
  5         0.0000000000e+00
  6         3.7049474468e-01
  7         0.0000000000e+00
  8         0.0000000000e+00
  9        -5.0372681425e-01
 10         0.0000000000e+00
 11         0.0000000000e+00
 12         2.8155701162e+00
 13         0.0000000000e+00
 14         0.0000000000e+00
 15        -2.9480406780e-02
 16         0.0000000000e+00
 17         0.0000000000e+00
 18         0.0000000000e+00
 19         3.0973052551e-02
 20         0.0000000000e+00
 21         0.0000000000e+00
 22         0.0000000000e+00
 23         0.0000000000e+00
 24         8.1711250655e-01
 25         0.0000000000e+00
 26         0.0000000000e+00
 27         0.0000000000e+00
 28         0.0000000000e+00
 29         1.0528133380e+00
 30         0.0000000000e+00
 31         0.0000000000e+00
 32         0.0000000000e+00
 33         0.0000000000e+00
 34        -1.1880368288e-02
 35         0.0000000000e+00
 36         0.0000000000e+00
 37         0.0000000000e+00
 38         9.4234334240e-02
 39         0.0000000000e+00
 40         0.0000000000e+00
 41         3.9181617209e-01
 42         0.0000000000e+00
 43         0.0000000000e+00
 44         0.0000000000e+00
 45        -9.1339122932e-01
 46         0.0000000000e+00
 47         0.0000000000e+00
 48        -8.2662260322e-02
 49         0.0000000000e+00
 50         0.0000000000e+00
 51         0.0000000000e+00
 52        -4.3040133457e-02
 53         0.0000000000e+00
 54         0.0000000000e+00
 55         0.0000000000e+00
 56         0.0000000000e+00
 57         0.0000000000e+00
 58         0.0000000000e+00
 59         0.0000000000e+00
 60         1.0110740783e+00
 61         0.0000000000e+00
 62         0.0000000000e+00
 63        -1.9706364622e+00
 64         0.0000000000e+00
 65         0.0000000000e+00
 66        -2.1380912318e-01
 67         0.0000000000e+00
 68         0.0000000000e+00
 69         0.0000000000e+00
 70         2.3954966913e-01
 71         0.0000000000e+00
 72         0.0000000000e+00
 73        -2.7489896069e-01
 74         0.0000000000e+00
 75         5.7882429285e-01
 76         0.0000000000e+00
 77         0.0000000000e+00
 78        -8.2255025469e-01
 79         0.0000000000e+00
 80        -1.4858216595e-01
 81         0.0000000000e+00
 82         0.0000000000e+00
 83         5.0059172296e-01
 84         4.1497329785e-01
 85         0.0000000000e+00
 86         0.0000000000e+00
 87         0.0000000000e+00
 88         0.0000000000e+00
 89         0.0000000000e+00
 90         1.0110740783e+00
 91         0.0000000000e+00
 92         0.0000000000e+00
 93        -1.9706364622e+00
 94         0.0000000000e+00
 95         0.0000000000e+00
 96        -2.1380912318e-01
 97         0.0000000000e+00
 98         0.0000000000e+00
 99         0.0000000000e+00
100         2.3954966913e-01
101         0.0000000000e+00
102         0.0000000000e+00
103         2.7489896069e-01
104         0.0000000000e+00
105         5.7882429285e-01
106         0.0000000000e+00
107         0.0000000000e+00
108         8.2255025469e-01
109         0.0000000000e+00
110        -1.4858216595e-01
111         0.0000000000e+00
112         0.0000000000e+00
113        -5.0059172296e-01
114         4.1497329785e-01
115         0.0000000000e+00
 Sym= A1
 Ene=         8.9038504935e+00
 Spin= Alpha
 Occup=         0.0000000000e+00
  1         3.2268816966e-01
  2         5.6197854966e-01
  3         1.4909532691e+00
  4         2.2254416056e+00
  5         1.7612063762e+00
  6         0.0000000000e+00
  7         0.0000000000e+00
  8        -1.4268251824e-01
  9         0.0000000000e+00
 10         0.0000000000e+00
 11         1.0125912131e+00
 12         0.0000000000e+00
 13         0.0000000000e+00
 14        -4.3111245679e-02
 15         0.0000000000e+00
 16         0.0000000000e+00
 17         3.5011053542e-01
 18         7.4651196765e-03
 19         0.0000000000e+00
 20         0.0000000000e+00
 21         6.6273668059e-02
 22         0.0000000000e+00
 23        -7.1659921779e-03
 24         0.0000000000e+00
 25         0.0000000000e+00
 26        -3.2868133474e-02
 27         0.0000000000e+00
 28        -1.6082996504e-01
 29         0.0000000000e+00
 30         0.0000000000e+00
 31         2.9921973464e-01
 32         0.0000000000e+00
 33        -1.5749955152e-01
 34         0.0000000000e+00
 35         0.0000000000e+00
 36        -2.8444274397e-01
 37         0.0000000000e+00
 38         0.0000000000e+00
 39         0.0000000000e+00
 40         2.9055104961e-01
 41         0.0000000000e+00
 42         0.0000000000e+00
 43         6.3385565167e-01
 44         0.0000000000e+00
 45         0.0000000000e+00
 46         0.0000000000e+00
 47        -1.2184150567e-01
 48         0.0000000000e+00
 49         0.0000000000e+00
 50        -1.7812137388e-01
 51         0.0000000000e+00
 52         0.0000000000e+00
 53         0.0000000000e+00
 54         2.1305113539e-01
 55         0.0000000000e+00
 56         1.8401074225e-01
 57         6.4748972486e-01
 58        -2.2457321671e+00
 59         4.5034906681e-02
 60         0.0000000000e+00
 61         5.1212509701e-01
 62        -6.3391730636e-01
 63         0.0000000000e+00
 64        -6.5235471883e-01
 65         7.7808031227e-01
 66         0.0000000000e+00
 67        -9.6177078213e-01
 68         7.5566662407e-01
 69         1.1004674833e-01
 70         0.0000000000e+00
 71        -3.9696232992e-01
 72        -2.8912616167e-01
 73         0.0000000000e+00
 74        -1.7116202858e-01
 75         0.0000000000e+00
 76         1.1014478782e+00
 77         6.9242158087e-01
 78         0.0000000000e+00
 79        -1.5903194563e-01
 80         0.0000000000e+00
 81        -2.6467954525e-01
 82        -4.6798813490e-01
 83         0.0000000000e+00
 84         0.0000000000e+00
 85         2.3033385406e-01
 86         1.8401074225e-01
 87         6.4748972486e-01
 88        -2.2457321671e+00
 89         4.5034906681e-02
 90         0.0000000000e+00
 91        -5.1212509701e-01
 92        -6.3391730636e-01
 93         0.0000000000e+00
 94         6.5235471883e-01
 95         7.7808031227e-01
 96         0.0000000000e+00
 97         9.6177078213e-01
 98         7.5566662407e-01
 99         1.1004674833e-01
100         0.0000000000e+00
101         3.9696232992e-01
102        -2.8912616167e-01
103         0.0000000000e+00
104        -1.7116202858e-01
105         0.0000000000e+00
106        -1.1014478782e+00
107         6.9242158087e-01
108         0.0000000000e+00
109        -1.5903194563e-01
110         0.0000000000e+00
111         2.6467954525e-01
112        -4.6798813490e-01
113         0.0000000000e+00
114         0.0000000000e+00
115        -2.3033385406e-01
 Sym= A2
 Ene=         8.9593523166e+00
 Spin= Alpha
 Occup=         0.0000000000e+00
  1         0.0000000000e+00
  2         0.0000000000e+00
  3         0.0000000000e+00
  4         0.0000000000e+00
  5         0.0000000000e+00
  6         0.0000000000e+00
  7         0.0000000000e+00
  8         0.0000000000e+00
  9         0.0000000000e+00
 10         0.0000000000e+00
 11         0.0000000000e+00
 12         0.0000000000e+00
 13         0.0000000000e+00
 14         0.0000000000e+00
 15         0.0000000000e+00
 16         0.0000000000e+00
 17         0.0000000000e+00
 18         0.0000000000e+00
 19         0.0000000000e+00
 20         0.0000000000e+00
 21         0.0000000000e+00
 22         4.3694828405e-02
 23         0.0000000000e+00
 24         0.0000000000e+00
 25         0.0000000000e+00
 26         0.0000000000e+00
 27         1.0869987186e+00
 28         0.0000000000e+00
 29         0.0000000000e+00
 30         0.0000000000e+00
 31         0.0000000000e+00
 32         1.1782387783e+00
 33         0.0000000000e+00
 34         0.0000000000e+00
 35         0.0000000000e+00
 36         0.0000000000e+00
 37        -1.8259803857e-01
 38         0.0000000000e+00
 39         0.0000000000e+00
 40         0.0000000000e+00
 41         0.0000000000e+00
 42         0.0000000000e+00
 43         0.0000000000e+00
 44         1.1757874142e+00
 45         0.0000000000e+00
 46         0.0000000000e+00
 47         0.0000000000e+00
 48         0.0000000000e+00
 49         0.0000000000e+00
 50         0.0000000000e+00
 51        -3.8548729254e-02
 52         0.0000000000e+00
 53         0.0000000000e+00
 54         0.0000000000e+00
 55         6.6727828946e-02
 56         0.0000000000e+00
 57         0.0000000000e+00
 58         0.0000000000e+00
 59         0.0000000000e+00
 60        -8.5572674126e-01
 61         0.0000000000e+00
 62         0.0000000000e+00
 63         1.7649333172e+00
 64         0.0000000000e+00
 65         0.0000000000e+00
 66         2.1850359891e-01
 67         0.0000000000e+00
 68         0.0000000000e+00
 69         0.0000000000e+00
 70        -2.2261491701e-01
 71         0.0000000000e+00
 72         0.0000000000e+00
 73         3.6727398717e-01
 74         0.0000000000e+00
 75        -6.1444267439e-01
 76         0.0000000000e+00
 77         0.0000000000e+00
 78         6.6378952789e-01
 79         0.0000000000e+00
 80         1.5087627392e-01
 81         0.0000000000e+00
 82         0.0000000000e+00
 83        -6.0843780051e-01
 84        -3.7830400316e-01
 85         0.0000000000e+00
 86         0.0000000000e+00
 87         0.0000000000e+00
 88         0.0000000000e+00
 89         0.0000000000e+00
 90         8.5572674126e-01
 91         0.0000000000e+00
 92         0.0000000000e+00
 93        -1.7649333172e+00
 94         0.0000000000e+00
 95         0.0000000000e+00
 96        -2.1850359891e-01
 97         0.0000000000e+00
 98         0.0000000000e+00
 99         0.0000000000e+00
100         2.2261491701e-01
101         0.0000000000e+00
102         0.0000000000e+00
103         3.6727398717e-01
104         0.0000000000e+00
105         6.1444267439e-01
106         0.0000000000e+00
107         0.0000000000e+00
108         6.6378952789e-01
109         0.0000000000e+00
110        -1.5087627392e-01
111         0.0000000000e+00
112         0.0000000000e+00
113        -6.0843780051e-01
114         3.7830400316e-01
115         0.0000000000e+00
 Sym= B2
 Ene=         9.2322384779e+00
 Spin= Alpha
 Occup=         0.0000000000e+00
  1         0.0000000000e+00
  2         0.0000000000e+00
  3         0.0000000000e+00
  4         0.0000000000e+00
  5         0.0000000000e+00
  6         0.0000000000e+00
  7         1.2001920880e-01
  8         0.0000000000e+00
  9         0.0000000000e+00
 10        -4.3315395879e-01
 11         0.0000000000e+00
 12         0.0000000000e+00
 13        -2.2053659370e+00
 14         0.0000000000e+00
 15         0.0000000000e+00
 16        -2.5101468128e-01
 17         0.0000000000e+00
 18         0.0000000000e+00
 19         0.0000000000e+00
 20         2.3865383691e-02
 21         0.0000000000e+00
 22         0.0000000000e+00
 23         0.0000000000e+00
 24         0.0000000000e+00
 25         3.8472168705e-01
 26         0.0000000000e+00
 27         0.0000000000e+00
 28         0.0000000000e+00
 29         0.0000000000e+00
 30         5.3037976377e-01
 31         0.0000000000e+00
 32         0.0000000000e+00
 33         0.0000000000e+00
 34         0.0000000000e+00
 35        -2.6754204850e-01
 36         0.0000000000e+00
 37         0.0000000000e+00
 38         0.0000000000e+00
 39         4.1460099358e-02
 40         0.0000000000e+00
 41         0.0000000000e+00
 42         1.5208794372e+00
 43         0.0000000000e+00
 44         0.0000000000e+00
 45         0.0000000000e+00
 46         5.2808428734e-01
 47         0.0000000000e+00
 48         0.0000000000e+00
 49         3.5970226244e-02
 50         0.0000000000e+00
 51         0.0000000000e+00
 52         0.0000000000e+00
 53         1.7983167795e-01
 54         0.0000000000e+00
 55         0.0000000000e+00
 56         2.8818735454e-01
 57        -3.4069718474e-02
 58        -1.3097929074e+00
 59        -1.5358591634e-02
 60         0.0000000000e+00
 61        -5.8092038709e-02
 62        -8.9789553971e-01
 63         0.0000000000e+00
 64         5.2115737229e-01
 65         1.8319234242e+00
 66         0.0000000000e+00
 67        -4.6576986158e-01
 68         6.4462735648e-01
 69        -3.3524949226e-01
 70         0.0000000000e+00
 71        -4.0314879083e-01
 72        -2.2417685757e-01
 73         0.0000000000e+00
 74        -9.5358614643e-01
 75         0.0000000000e+00
 76         8.9801644371e-01
 77        -1.2742850164e-01
 78         0.0000000000e+00
 79         3.2981031047e-01
 80         0.0000000000e+00
 81        -5.6689330077e-01
 82        -1.2607428036e-01
 83         0.0000000000e+00
 84         0.0000000000e+00
 85        -9.9070563097e-02
 86        -2.8818735454e-01
 87         3.4069718474e-02
 88         1.3097929074e+00
 89         1.5358591634e-02
 90         0.0000000000e+00
 91        -5.8092038709e-02
 92         8.9789553971e-01
 93         0.0000000000e+00
 94         5.2115737229e-01
 95        -1.8319234242e+00
 96         0.0000000000e+00
 97        -4.6576986158e-01
 98        -6.4462735648e-01
 99         3.3524949226e-01
100         0.0000000000e+00
101        -4.0314879083e-01
102         2.2417685757e-01
103         0.0000000000e+00
104         9.5358614643e-01
105         0.0000000000e+00
106         8.9801644371e-01
107         1.2742850164e-01
108         0.0000000000e+00
109        -3.2981031047e-01
110         0.0000000000e+00
111        -5.6689330077e-01
112         1.2607428036e-01
113         0.0000000000e+00
114         0.0000000000e+00
115        -9.9070563097e-02
 Sym= A1
 Ene=         9.3838899228e+00
 Spin= Alpha
 Occup=         0.0000000000e+00
  1         6.6716440636e-02
  2         1.7319482565e-01
  3         6.6734014573e-01
  4        -6.0960396587e-01
  5        -1.2577519034e+00
  6         0.0000000000e+00
  7         0.0000000000e+00
  8        -1.2498196666e-01
  9         0.0000000000e+00
 10         0.0000000000e+00
 11         4.8683689907e-01
 12         0.0000000000e+00
 13         0.0000000000e+00
 14        -2.2943164146e+00
 15         0.0000000000e+00
 16         0.0000000000e+00
 17        -4.1853291636e-01
 18        -8.7486263377e-02
 19         0.0000000000e+00
 20         0.0000000000e+00
 21         2.1378449720e-03
 22         0.0000000000e+00
 23        -7.8974756540e-01
 24         0.0000000000e+00
 25         0.0000000000e+00
 26        -5.4790577391e-01
 27         0.0000000000e+00
 28        -1.2565707772e+00
 29         0.0000000000e+00
 30         0.0000000000e+00
 31        -3.6512292263e-01
 32         0.0000000000e+00
 33         9.6148360616e-02
 34         0.0000000000e+00
 35         0.0000000000e+00
 36         8.5081800899e-03
 37         0.0000000000e+00
 38         0.0000000000e+00
 39         0.0000000000e+00
 40        -5.9663705622e-01
 41         0.0000000000e+00
 42         0.0000000000e+00
 43        -1.0140390794e-01
 44         0.0000000000e+00
 45         0.0000000000e+00
 46         0.0000000000e+00
 47         3.9944380278e-01
 48         0.0000000000e+00
 49         0.0000000000e+00
 50        -2.8838663576e-01
 51         0.0000000000e+00
 52         0.0000000000e+00
 53         0.0000000000e+00
 54        -1.4994591834e-01
 55         0.0000000000e+00
 56        -1.8178749321e-01
 57         4.6206555968e-01
 58         5.9177959202e-01
 59         3.7559471785e-02
 60         0.0000000000e+00
 61        -4.0607023252e-01
 62        -4.9653575922e-01
 63         0.0000000000e+00
 64         1.0343657835e+00
 65         1.0560894770e+00
 66         0.0000000000e+00
 67         3.0505482082e-01
 68         1.1095598176e-01
 69        -2.7914986078e-01
 70         0.0000000000e+00
 71         2.5183317103e-01
 72        -2.4850467949e-01
 73         0.0000000000e+00
 74        -6.0251681134e-01
 75         0.0000000000e+00
 76         1.9452731049e-01
 77        -2.7336378024e-01
 78         0.0000000000e+00
 79         9.8360624536e-02
 80         0.0000000000e+00
 81        -5.7288305415e-01
 82         3.1570251928e-02
 83         0.0000000000e+00
 84         0.0000000000e+00
 85        -2.6383848686e-02
 86        -1.8178749321e-01
 87         4.6206555968e-01
 88         5.9177959202e-01
 89         3.7559471785e-02
 90         0.0000000000e+00
 91         4.0607023252e-01
 92        -4.9653575922e-01
 93         0.0000000000e+00
 94        -1.0343657835e+00
 95         1.0560894770e+00
 96         0.0000000000e+00
 97        -3.0505482082e-01
 98         1.1095598176e-01
 99        -2.7914986078e-01
100         0.0000000000e+00
101        -2.5183317103e-01
102        -2.4850467949e-01
103         0.0000000000e+00
104        -6.0251681134e-01
105         0.0000000000e+00
106        -1.9452731049e-01
107        -2.7336378024e-01
108         0.0000000000e+00
109         9.8360624536e-02
110         0.0000000000e+00
111         5.7288305415e-01
112         3.1570251928e-02
113         0.0000000000e+00
114         0.0000000000e+00
115         2.6383848686e-02
 Sym= B2
 Ene=         9.4417566020e+00
 Spin= Alpha
 Occup=         0.0000000000e+00
  1         0.0000000000e+00
  2         0.0000000000e+00
  3         0.0000000000e+00
  4         0.0000000000e+00
  5         0.0000000000e+00
  6         0.0000000000e+00
  7         1.0580732081e-01
  8         0.0000000000e+00
  9         0.0000000000e+00
 10        -8.4148532366e-01
 11         0.0000000000e+00
 12         0.0000000000e+00
 13         1.0007739458e+00
 14         0.0000000000e+00
 15         0.0000000000e+00
 16        -1.9934384024e-01
 17         0.0000000000e+00
 18         0.0000000000e+00
 19         0.0000000000e+00
 20         1.2590061797e-01
 21         0.0000000000e+00
 22         0.0000000000e+00
 23         0.0000000000e+00
 24         0.0000000000e+00
 25        -4.0982889730e-01
 26         0.0000000000e+00
 27         0.0000000000e+00
 28         0.0000000000e+00
 29         0.0000000000e+00
 30         4.1280628669e-01
 31         0.0000000000e+00
 32         0.0000000000e+00
 33         0.0000000000e+00
 34         0.0000000000e+00
 35        -5.3786458009e-02
 36         0.0000000000e+00
 37         0.0000000000e+00
 38         0.0000000000e+00
 39         1.0868335243e-01
 40         0.0000000000e+00
 41         0.0000000000e+00
 42        -3.6738267248e-01
 43         0.0000000000e+00
 44         0.0000000000e+00
 45         0.0000000000e+00
 46        -2.9539895142e-01
 47         0.0000000000e+00
 48         0.0000000000e+00
 49        -3.5869576209e-01
 50         0.0000000000e+00
 51         0.0000000000e+00
 52         0.0000000000e+00
 53         2.3180149817e-01
 54         0.0000000000e+00
 55         0.0000000000e+00
 56         1.2775858719e-01
 57         6.6438373846e-01
 58        -2.1693790805e+00
 59         3.1749416491e-02
 60         0.0000000000e+00
 61         1.0356312974e+00
 62         1.4055025474e-01
 63         0.0000000000e+00
 64        -1.5826621058e+00
 65        -4.0320113509e-01
 66         0.0000000000e+00
 67        -1.2280108799e+00
 68         2.1236135954e-01
 69        -5.7609749344e-02
 70         0.0000000000e+00
 71         2.1573047218e-02
 72        -3.1836993260e-01
 73         0.0000000000e+00
 74         7.4511678435e-01
 75         0.0000000000e+00
 76         1.7382700948e-01
 77         1.3786055247e+00
 78         0.0000000000e+00
 79        -8.8973021033e-02
 80         0.0000000000e+00
 81         3.4061288081e-01
 82        -1.6966621729e-01
 83         0.0000000000e+00
 84         0.0000000000e+00
 85         6.5380125762e-01
 86        -1.2775858719e-01
 87        -6.6438373846e-01
 88         2.1693790805e+00
 89        -3.1749416491e-02
 90         0.0000000000e+00
 91         1.0356312974e+00
 92        -1.4055025474e-01
 93         0.0000000000e+00
 94        -1.5826621058e+00
 95         4.0320113509e-01
 96         0.0000000000e+00
 97        -1.2280108799e+00
 98        -2.1236135954e-01
 99         5.7609749344e-02
100         0.0000000000e+00
101         2.1573047218e-02
102         3.1836993260e-01
103         0.0000000000e+00
104        -7.4511678435e-01
105         0.0000000000e+00
106         1.7382700948e-01
107        -1.3786055247e+00
108         0.0000000000e+00
109         8.8973021033e-02
110         0.0000000000e+00
111         3.4061288081e-01
112         1.6966621729e-01
113         0.0000000000e+00
114         0.0000000000e+00
115         6.5380125762e-01
 Sym= A1
 Ene=         9.9221793261e+00
 Spin= Alpha
 Occup=         0.0000000000e+00
  1         2.1285843055e-01
  2         3.6105124342e-01
  3         2.9535843109e+00
  4        -9.3890102569e+00
  5        -7.5709261270e+00
  6         0.0000000000e+00
  7         0.0000000000e+00
  8        -7.3827197046e-01
  9         0.0000000000e+00
 10         0.0000000000e+00
 11         1.0824510892e+00
 12         0.0000000000e+00
 13         0.0000000000e+00
 14        -6.3558273794e+00
 15         0.0000000000e+00
 16         0.0000000000e+00
 17        -1.5642633127e+00
 18         3.1655706607e-02
 19         0.0000000000e+00
 20         0.0000000000e+00
 21         6.5694391648e-02
 22         0.0000000000e+00
 23         7.9485418727e-02
 24         0.0000000000e+00
 25         0.0000000000e+00
 26         1.1761920176e+00
 27         0.0000000000e+00
 28        -3.5794019955e-01
 29         0.0000000000e+00
 30         0.0000000000e+00
 31         2.0334556636e+00
 32         0.0000000000e+00
 33        -1.6930966882e-01
 34         0.0000000000e+00
 35         0.0000000000e+00
 36        -1.2325180695e-01
 37         0.0000000000e+00
 38         0.0000000000e+00
 39         0.0000000000e+00
 40         7.4660320031e-01
 41         0.0000000000e+00
 42         0.0000000000e+00
 43         1.4316816256e+00
 44         0.0000000000e+00
 45         0.0000000000e+00
 46         0.0000000000e+00
 47         4.0782276467e-01
 48         0.0000000000e+00
 49         0.0000000000e+00
 50         3.5725050044e-01
 51         0.0000000000e+00
 52         0.0000000000e+00
 53         0.0000000000e+00
 54        -3.5339358862e-01
 55         0.0000000000e+00
 56        -8.6683244004e-01
 57         4.6466714696e+00
 58         4.6107821496e+00
 59         1.3527773481e-01
 60         0.0000000000e+00
 61        -4.1040524941e-02
 62         5.8582592603e-02
 63         0.0000000000e+00
 64         2.4100858761e+00
 65        -2.0153694550e+00
 66         0.0000000000e+00
 67         1.3981567601e+00
 68        -1.0225396588e+00
 69         1.4231261085e-01
 70         0.0000000000e+00
 71        -4.9022331457e-01
 72        -2.1810449226e-01
 73         0.0000000000e+00
 74         5.9561027130e-02
 75         0.0000000000e+00
 76        -6.3607095742e-01
 77        -4.1852046360e-01
 78         0.0000000000e+00
 79        -8.9057438440e-03
 80         0.0000000000e+00
 81         2.1958295339e-01
 82         1.6127431136e-01
 83         0.0000000000e+00
 84         0.0000000000e+00
 85         2.9241155491e-03
 86        -8.6683244004e-01
 87         4.6466714696e+00
 88         4.6107821496e+00
 89         1.3527773481e-01
 90         0.0000000000e+00
 91         4.1040524941e-02
 92         5.8582592603e-02
 93         0.0000000000e+00
 94        -2.4100858761e+00
 95        -2.0153694550e+00
 96         0.0000000000e+00
 97        -1.3981567601e+00
 98        -1.0225396588e+00
 99         1.4231261085e-01
100         0.0000000000e+00
101         4.9022331457e-01
102        -2.1810449226e-01
103         0.0000000000e+00
104         5.9561027130e-02
105         0.0000000000e+00
106         6.3607095742e-01
107        -4.1852046360e-01
108         0.0000000000e+00
109        -8.9057438440e-03
110         0.0000000000e+00
111        -2.1958295339e-01
112         1.6127431136e-01
113         0.0000000000e+00
114         0.0000000000e+00
115        -2.9241155491e-03
 Sym= B2
 Ene=         1.0020229195e+01
 Spin= Alpha
 Occup=         0.0000000000e+00
  1         0.0000000000e+00
  2         0.0000000000e+00
  3         0.0000000000e+00
  4         0.0000000000e+00
  5         0.0000000000e+00
  6         0.0000000000e+00
  7         8.0723693917e-01
  8         0.0000000000e+00
  9         0.0000000000e+00
 10        -1.3610065459e+00
 11         0.0000000000e+00
 12         0.0000000000e+00
 13         8.0814562815e+00
 14         0.0000000000e+00
 15         0.0000000000e+00
 16         1.8512754940e+00
 17         0.0000000000e+00
 18         0.0000000000e+00
 19         0.0000000000e+00
 20         3.0344103237e-02
 21         0.0000000000e+00
 22         0.0000000000e+00
 23         0.0000000000e+00
 24         0.0000000000e+00
 25         1.4428781477e+00
 26         0.0000000000e+00
 27         0.0000000000e+00
 28         0.0000000000e+00
 29         0.0000000000e+00
 30         3.2957627065e+00
 31         0.0000000000e+00
 32         0.0000000000e+00
 33         0.0000000000e+00
 34         0.0000000000e+00
 35        -4.4971402534e-02
 36         0.0000000000e+00
 37         0.0000000000e+00
 38         0.0000000000e+00
 39        -2.0484008583e-03
 40         0.0000000000e+00
 41         0.0000000000e+00
 42         6.7472200213e-01
 43         0.0000000000e+00
 44         0.0000000000e+00
 45         0.0000000000e+00
 46        -8.2078905246e-01
 47         0.0000000000e+00
 48         0.0000000000e+00
 49        -5.1105279502e-02
 50         0.0000000000e+00
 51         0.0000000000e+00
 52         0.0000000000e+00
 53        -5.3466562777e-01
 54         0.0000000000e+00
 55         0.0000000000e+00
 56        -9.7087423798e-01
 57         4.9438163246e+00
 58         3.6802223476e+00
 59         1.9472637327e-01
 60         0.0000000000e+00
 61         2.8803216315e-02
 62         9.9033857238e-02
 63         0.0000000000e+00
 64         2.0727328565e+00
 65        -1.9044399641e+00
 66         0.0000000000e+00
 67         9.5971163958e-01
 68        -1.0705619149e+00
 69         9.0862039612e-02
 70         0.0000000000e+00
 71        -3.6644501550e-01
 72        -4.2009698491e-01
 73         0.0000000000e+00
 74         2.0521536878e-01
 75         0.0000000000e+00
 76        -5.7689731290e-01
 77        -4.6964662829e-03
 78         0.0000000000e+00
 79         1.3947110846e-02
 80         0.0000000000e+00
 81         9.7455299764e-02
 82         1.5028706422e-01
 83         0.0000000000e+00
 84         0.0000000000e+00
 85        -5.2494110015e-02
 86         9.7087423798e-01
 87        -4.9438163246e+00
 88        -3.6802223476e+00
 89        -1.9472637327e-01
 90         0.0000000000e+00
 91         2.8803216315e-02
 92        -9.9033857238e-02
 93         0.0000000000e+00
 94         2.0727328565e+00
 95         1.9044399641e+00
 96         0.0000000000e+00
 97         9.5971163958e-01
 98         1.0705619149e+00
 99        -9.0862039612e-02
100         0.0000000000e+00
101        -3.6644501550e-01
102         4.2009698491e-01
103         0.0000000000e+00
104        -2.0521536878e-01
105         0.0000000000e+00
106        -5.7689731290e-01
107         4.6964662829e-03
108         0.0000000000e+00
109        -1.3947110846e-02
110         0.0000000000e+00
111         9.7455299764e-02
112        -1.5028706422e-01
113         0.0000000000e+00
114         0.0000000000e+00
115        -5.2494110015e-02
 Sym= B1
 Ene=         1.0310412706e+01
 Spin= Alpha
 Occup=         0.0000000000e+00
  1         0.0000000000e+00
  2         0.0000000000e+00
  3         0.0000000000e+00
  4         0.0000000000e+00
  5         0.0000000000e+00
  6         2.5121041012e-01
  7         0.0000000000e+00
  8         0.0000000000e+00
  9        -3.7388381678e-01
 10         0.0000000000e+00
 11         0.0000000000e+00
 12         5.0785790621e-01
 13         0.0000000000e+00
 14         0.0000000000e+00
 15         1.9108206303e-02
 16         0.0000000000e+00
 17         0.0000000000e+00
 18         0.0000000000e+00
 19         1.4955019023e-01
 20         0.0000000000e+00
 21         0.0000000000e+00
 22         0.0000000000e+00
 23         0.0000000000e+00
 24         4.9150329738e-02
 25         0.0000000000e+00
 26         0.0000000000e+00
 27         0.0000000000e+00
 28         0.0000000000e+00
 29         4.3387395040e-01
 30         0.0000000000e+00
 31         0.0000000000e+00
 32         0.0000000000e+00
 33         0.0000000000e+00
 34         1.4244598874e-01
 35         0.0000000000e+00
 36         0.0000000000e+00
 37         0.0000000000e+00
 38         9.3618273812e-03
 39         0.0000000000e+00
 40         0.0000000000e+00
 41         4.4995455697e-01
 42         0.0000000000e+00
 43         0.0000000000e+00
 44         0.0000000000e+00
 45         1.0211662884e-01
 46         0.0000000000e+00
 47         0.0000000000e+00
 48         9.6546556298e-01
 49         0.0000000000e+00
 50         0.0000000000e+00
 51         0.0000000000e+00
 52        -2.5980680037e-01
 53         0.0000000000e+00
 54         0.0000000000e+00
 55         0.0000000000e+00
 56         0.0000000000e+00
 57         0.0000000000e+00
 58         0.0000000000e+00
 59         0.0000000000e+00
 60         4.8925776403e-03
 61         0.0000000000e+00
 62         0.0000000000e+00
 63        -2.0955009677e-01
 64         0.0000000000e+00
 65         0.0000000000e+00
 66        -8.5682136919e-02
 67         0.0000000000e+00
 68         0.0000000000e+00
 69         0.0000000000e+00
 70        -7.5220593040e-02
 71         0.0000000000e+00
 72         0.0000000000e+00
 73        -2.5630224179e-01
 74         0.0000000000e+00
 75        -8.5554376200e-02
 76         0.0000000000e+00
 77         0.0000000000e+00
 78        -1.4604861559e-01
 79         0.0000000000e+00
 80         2.1515959002e-01
 81         0.0000000000e+00
 82         0.0000000000e+00
 83        -1.5333754963e-01
 84         3.0781915226e-01
 85         0.0000000000e+00
 86         0.0000000000e+00
 87         0.0000000000e+00
 88         0.0000000000e+00
 89         0.0000000000e+00
 90         4.8925776403e-03
 91         0.0000000000e+00
 92         0.0000000000e+00
 93        -2.0955009677e-01
 94         0.0000000000e+00
 95         0.0000000000e+00
 96        -8.5682136919e-02
 97         0.0000000000e+00
 98         0.0000000000e+00
 99         0.0000000000e+00
100        -7.5220593040e-02
101         0.0000000000e+00
102         0.0000000000e+00
103         2.5630224179e-01
104         0.0000000000e+00
105        -8.5554376200e-02
106         0.0000000000e+00
107         0.0000000000e+00
108         1.4604861559e-01
109         0.0000000000e+00
110         2.1515959002e-01
111         0.0000000000e+00
112         0.0000000000e+00
113         1.5333754963e-01
114         3.0781915226e-01
115         0.0000000000e+00
 Sym= A1
 Ene=         1.0455231220e+01
 Spin= Alpha
 Occup=         0.0000000000e+00
  1         4.3775475299e-02
  2         1.2239539743e-01
  3         7.2273009647e-01
  4        -1.3942611553e+00
  5        -2.1212472124e+00
  6         0.0000000000e+00
  7         0.0000000000e+00
  8        -3.0837050754e-01
  9         0.0000000000e+00
 10         0.0000000000e+00
 11         7.2405997448e-01
 12         0.0000000000e+00
 13         0.0000000000e+00
 14        -2.5126050016e+00
 15         0.0000000000e+00
 16         0.0000000000e+00
 17        -6.4011533478e-01
 18        -3.2208549518e-01
 19         0.0000000000e+00
 20         0.0000000000e+00
 21        -8.7400897793e-02
 22         0.0000000000e+00
 23        -3.0954138005e-01
 24         0.0000000000e+00
 25         0.0000000000e+00
 26        -1.4251328172e-01
 27         0.0000000000e+00
 28        -1.3032861457e+00
 29         0.0000000000e+00
 30         0.0000000000e+00
 31        -1.0894981395e-01
 32         0.0000000000e+00
 33        -2.9536779695e-02
 34         0.0000000000e+00
 35         0.0000000000e+00
 36         1.0648187854e-01
 37         0.0000000000e+00
 38         0.0000000000e+00
 39         0.0000000000e+00
 40        -7.0279738418e-01
 41         0.0000000000e+00
 42         0.0000000000e+00
 43        -7.9189638098e-03
 44         0.0000000000e+00
 45         0.0000000000e+00
 46         0.0000000000e+00
 47        -5.1458573447e-01
 48         0.0000000000e+00
 49         0.0000000000e+00
 50         5.9590094547e-01
 51         0.0000000000e+00
 52         0.0000000000e+00
 53         0.0000000000e+00
 54         2.7763365373e-01
 55         0.0000000000e+00
 56        -2.8134197249e-01
 57         7.9332907020e-01
 58         1.1924971472e+00
 59         3.4493759558e-02
 60         0.0000000000e+00
 61        -1.8110093303e-01
 62        -6.7719456061e-02
 63         0.0000000000e+00
 64         1.0485519117e+00
 65         4.7629025599e-01
 66         0.0000000000e+00
 67         4.6523332680e-01
 68        -5.1612702586e-03
 69        -3.5960797333e-01
 70         0.0000000000e+00
 71         2.3762975036e-01
 72        -4.0316495820e-01
 73         0.0000000000e+00
 74        -2.7906529076e-01
 75         0.0000000000e+00
 76         6.4638734938e-02
 77        -2.2205096049e-01
 78         0.0000000000e+00
 79        -2.9804284691e-02
 80         0.0000000000e+00
 81        -2.3236063377e-01
 82        -1.1297392173e-01
 83         0.0000000000e+00
 84         0.0000000000e+00
 85        -2.0358600040e-01
 86        -2.8134197249e-01
 87         7.9332907020e-01
 88         1.1924971472e+00
 89         3.4493759558e-02
 90         0.0000000000e+00
 91         1.8110093303e-01
 92        -6.7719456061e-02
 93         0.0000000000e+00
 94        -1.0485519117e+00
 95         4.7629025599e-01
 96         0.0000000000e+00
 97        -4.6523332680e-01
 98        -5.1612702586e-03
 99        -3.5960797333e-01
100         0.0000000000e+00
101        -2.3762975036e-01
102        -4.0316495820e-01
103         0.0000000000e+00
104        -2.7906529076e-01
105         0.0000000000e+00
106        -6.4638734938e-02
107        -2.2205096049e-01
108         0.0000000000e+00
109        -2.9804284691e-02
110         0.0000000000e+00
111         2.3236063377e-01
112        -1.1297392173e-01
113         0.0000000000e+00
114         0.0000000000e+00
115         2.0358600040e-01
 Sym= B1
 Ene=         1.0660412837e+01
 Spin= Alpha
 Occup=         0.0000000000e+00
  1         0.0000000000e+00
  2         0.0000000000e+00
  3         0.0000000000e+00
  4         0.0000000000e+00
  5         0.0000000000e+00
  6         1.2374453693e+00
  7         0.0000000000e+00
  8         0.0000000000e+00
  9        -1.6426859355e+00
 10         0.0000000000e+00
 11         0.0000000000e+00
 12         6.8158161758e-01
 13         0.0000000000e+00
 14         0.0000000000e+00
 15        -2.8232530141e-01
 16         0.0000000000e+00
 17         0.0000000000e+00
 18         0.0000000000e+00
 19        -2.5797677664e-02
 20         0.0000000000e+00
 21         0.0000000000e+00
 22         0.0000000000e+00
 23         0.0000000000e+00
 24        -1.8461587010e-01
 25         0.0000000000e+00
 26         0.0000000000e+00
 27         0.0000000000e+00
 28         0.0000000000e+00
 29        -5.7414091605e-02
 30         0.0000000000e+00
 31         0.0000000000e+00
 32         0.0000000000e+00
 33         0.0000000000e+00
 34         8.3056110593e-02
 35         0.0000000000e+00
 36         0.0000000000e+00
 37         0.0000000000e+00
 38        -2.9783039273e-01
 39         0.0000000000e+00
 40         0.0000000000e+00
 41        -1.5241389550e-01
 42         0.0000000000e+00
 43         0.0000000000e+00
 44         0.0000000000e+00
 45         8.0925877301e-02
 46         0.0000000000e+00
 47         0.0000000000e+00
 48        -2.3540411592e-01
 49         0.0000000000e+00
 50         0.0000000000e+00
 51         0.0000000000e+00
 52        -2.5075371491e-01
 53         0.0000000000e+00
 54         0.0000000000e+00
 55         0.0000000000e+00
 56         0.0000000000e+00
 57         0.0000000000e+00
 58         0.0000000000e+00
 59         0.0000000000e+00
 60        -1.5241121289e-01
 61         0.0000000000e+00
 62         0.0000000000e+00
 63         1.5367198225e-01
 64         0.0000000000e+00
 65         0.0000000000e+00
 66         3.5894781185e-02
 67         0.0000000000e+00
 68         0.0000000000e+00
 69         0.0000000000e+00
 70         7.9525258763e-02
 71         0.0000000000e+00
 72         0.0000000000e+00
 73         3.2395642402e-02
 74         0.0000000000e+00
 75        -7.2333991231e-02
 76         0.0000000000e+00
 77         0.0000000000e+00
 78         1.1176055918e-01
 79         0.0000000000e+00
 80        -7.0254760450e-03
 81         0.0000000000e+00
 82         0.0000000000e+00
 83        -1.2276009550e-01
 84        -2.2115952854e-01
 85         0.0000000000e+00
 86         0.0000000000e+00
 87         0.0000000000e+00
 88         0.0000000000e+00
 89         0.0000000000e+00
 90        -1.5241121289e-01
 91         0.0000000000e+00
 92         0.0000000000e+00
 93         1.5367198225e-01
 94         0.0000000000e+00
 95         0.0000000000e+00
 96         3.5894781185e-02
 97         0.0000000000e+00
 98         0.0000000000e+00
 99         0.0000000000e+00
100         7.9525258763e-02
101         0.0000000000e+00
102         0.0000000000e+00
103        -3.2395642402e-02
104         0.0000000000e+00
105        -7.2333991231e-02
106         0.0000000000e+00
107         0.0000000000e+00
108        -1.1176055918e-01
109         0.0000000000e+00
110        -7.0254760450e-03
111         0.0000000000e+00
112         0.0000000000e+00
113         1.2276009550e-01
114        -2.2115952854e-01
115         0.0000000000e+00
 Sym= A2
 Ene=         1.0740714113e+01
 Spin= Alpha
 Occup=         0.0000000000e+00
  1         0.0000000000e+00
  2         0.0000000000e+00
  3         0.0000000000e+00
  4         0.0000000000e+00
  5         0.0000000000e+00
  6         0.0000000000e+00
  7         0.0000000000e+00
  8         0.0000000000e+00
  9         0.0000000000e+00
 10         0.0000000000e+00
 11         0.0000000000e+00
 12         0.0000000000e+00
 13         0.0000000000e+00
 14         0.0000000000e+00
 15         0.0000000000e+00
 16         0.0000000000e+00
 17         0.0000000000e+00
 18         0.0000000000e+00
 19         0.0000000000e+00
 20         0.0000000000e+00
 21         0.0000000000e+00
 22         2.8083308316e-01
 23         0.0000000000e+00
 24         0.0000000000e+00
 25         0.0000000000e+00
 26         0.0000000000e+00
 27         7.9605699212e-02
 28         0.0000000000e+00
 29         0.0000000000e+00
 30         0.0000000000e+00
 31         0.0000000000e+00
 32         6.6630453837e-01
 33         0.0000000000e+00
 34         0.0000000000e+00
 35         0.0000000000e+00
 36         0.0000000000e+00
 37        -1.2802211751e-01
 38         0.0000000000e+00
 39         0.0000000000e+00
 40         0.0000000000e+00
 41         0.0000000000e+00
 42         0.0000000000e+00
 43         0.0000000000e+00
 44         4.4137265658e-01
 45         0.0000000000e+00
 46         0.0000000000e+00
 47         0.0000000000e+00
 48         0.0000000000e+00
 49         0.0000000000e+00
 50         0.0000000000e+00
 51        -2.7575918181e-01
 52         0.0000000000e+00
 53         0.0000000000e+00
 54         0.0000000000e+00
 55        -1.0487911121e+00
 56         0.0000000000e+00
 57         0.0000000000e+00
 58         0.0000000000e+00
 59         0.0000000000e+00
 60         3.7859908593e-02
 61         0.0000000000e+00
 62         0.0000000000e+00
 63         3.9911256211e-01
 64         0.0000000000e+00
 65         0.0000000000e+00
 66         1.4700385092e-01
 67         0.0000000000e+00
 68         0.0000000000e+00
 69         0.0000000000e+00
 70        -3.1538694929e-01
 71         0.0000000000e+00
 72         0.0000000000e+00
 73         1.5585860723e-01
 74         0.0000000000e+00
 75        -1.8694937891e-01
 76         0.0000000000e+00
 77         0.0000000000e+00
 78         3.3486522961e-02
 79         0.0000000000e+00
 80         3.1102024648e-01
 81         0.0000000000e+00
 82         0.0000000000e+00
 83        -1.0349357712e-01
 84         8.8675711861e-02
 85         0.0000000000e+00
 86         0.0000000000e+00
 87         0.0000000000e+00
 88         0.0000000000e+00
 89         0.0000000000e+00
 90        -3.7859908593e-02
 91         0.0000000000e+00
 92         0.0000000000e+00
 93        -3.9911256211e-01
 94         0.0000000000e+00
 95         0.0000000000e+00
 96        -1.4700385092e-01
 97         0.0000000000e+00
 98         0.0000000000e+00
 99         0.0000000000e+00
100         3.1538694929e-01
101         0.0000000000e+00
102         0.0000000000e+00
103         1.5585860723e-01
104         0.0000000000e+00
105         1.8694937891e-01
106         0.0000000000e+00
107         0.0000000000e+00
108         3.3486522961e-02
109         0.0000000000e+00
110        -3.1102024648e-01
111         0.0000000000e+00
112         0.0000000000e+00
113        -1.0349357712e-01
114        -8.8675711861e-02
115         0.0000000000e+00
 Sym= A1
 Ene=         1.0810874437e+01
 Spin= Alpha
 Occup=         0.0000000000e+00
  1         3.5113770884e-02
  2         4.7485479188e-02
  3        -1.8536667109e-02
  4         1.1605131936e+00
  5         4.8616303589e-01
  6         0.0000000000e+00
  7         0.0000000000e+00
  8         2.8985781307e-01
  9         0.0000000000e+00
 10         0.0000000000e+00
 11        -2.7636374983e-01
 12         0.0000000000e+00
 13         0.0000000000e+00
 14         6.6489720949e-01
 15         0.0000000000e+00
 16         0.0000000000e+00
 17         2.1949035954e-02
 18        -5.7391233134e-02
 19         0.0000000000e+00
 20         0.0000000000e+00
 21         2.0438311367e-01
 22         0.0000000000e+00
 23        -3.1272981149e-02
 24         0.0000000000e+00
 25         0.0000000000e+00
 26        -1.0463730734e-01
 27         0.0000000000e+00
 28         9.3682183536e-03
 29         0.0000000000e+00
 30         0.0000000000e+00
 31         3.5166269056e-01
 32         0.0000000000e+00
 33        -1.1418826792e-01
 34         0.0000000000e+00
 35         0.0000000000e+00
 36        -1.1088453119e-01
 37         0.0000000000e+00
 38         0.0000000000e+00
 39         0.0000000000e+00
 40        -1.4097455456e-01
 41         0.0000000000e+00
 42         0.0000000000e+00
 43         3.1414929251e-01
 44         0.0000000000e+00
 45         0.0000000000e+00
 46         0.0000000000e+00
 47        -3.6901671316e-01
 48         0.0000000000e+00
 49         0.0000000000e+00
 50         1.6686695046e-01
 51         0.0000000000e+00
 52         0.0000000000e+00
 53         0.0000000000e+00
 54        -9.6401912815e-01
 55         0.0000000000e+00
 56         2.6352926916e-01
 57        -1.0063759597e-01
 58        -6.4043206229e-01
 59         2.2568144540e-02
 60         0.0000000000e+00
 61         2.8573417894e-01
 62        -2.6794558562e-01
 63         0.0000000000e+00
 64        -4.7120639527e-01
 65         2.8586516275e-01
 66         0.0000000000e+00
 67        -2.6888324208e-01
 68         1.5730269398e-01
 69         1.5329857679e-01
 70         0.0000000000e+00
 71         1.7568995819e-02
 72        -1.6222446818e-01
 73         0.0000000000e+00
 74         8.3237248093e-02
 75         0.0000000000e+00
 76         2.9705282093e-01
 77         7.7359037981e-02
 78         0.0000000000e+00
 79        -2.5855150239e-01
 80         0.0000000000e+00
 81        -7.4993696455e-02
 82         3.6903886138e-02
 83         0.0000000000e+00
 84         0.0000000000e+00
 85        -2.4089349882e-01
 86         2.6352926916e-01
 87        -1.0063759597e-01
 88        -6.4043206229e-01
 89         2.2568144540e-02
 90         0.0000000000e+00
 91        -2.8573417894e-01
 92        -2.6794558562e-01
 93         0.0000000000e+00
 94         4.7120639527e-01
 95         2.8586516275e-01
 96         0.0000000000e+00
 97         2.6888324208e-01
 98         1.5730269398e-01
 99         1.5329857679e-01
100         0.0000000000e+00
101        -1.7568995819e-02
102        -1.6222446818e-01
103         0.0000000000e+00
104         8.3237248093e-02
105         0.0000000000e+00
106        -2.9705282093e-01
107         7.7359037981e-02
108         0.0000000000e+00
109        -2.5855150239e-01
110         0.0000000000e+00
111         7.4993696455e-02
112         3.6903886138e-02
113         0.0000000000e+00
114         0.0000000000e+00
115         2.4089349882e-01
 Sym= B2
 Ene=         1.1297021595e+01
 Spin= Alpha
 Occup=         0.0000000000e+00
  1         0.0000000000e+00
  2         0.0000000000e+00
  3         0.0000000000e+00
  4         0.0000000000e+00
  5         0.0000000000e+00
  6         0.0000000000e+00
  7         3.2312681428e-01
  8         0.0000000000e+00
  9         0.0000000000e+00
 10        -1.8681605777e-01
 11         0.0000000000e+00
 12         0.0000000000e+00
 13         1.4026819410e+00
 14         0.0000000000e+00
 15         0.0000000000e+00
 16         2.5635990151e-01
 17         0.0000000000e+00
 18         0.0000000000e+00
 19         0.0000000000e+00
 20        -2.9175535889e-01
 21         0.0000000000e+00
 22         0.0000000000e+00
 23         0.0000000000e+00
 24         0.0000000000e+00
 25         2.8932314081e-01
 26         0.0000000000e+00
 27         0.0000000000e+00
 28         0.0000000000e+00
 29         0.0000000000e+00
 30        -1.1317250459e-01
 31         0.0000000000e+00
 32         0.0000000000e+00
 33         0.0000000000e+00
 34         0.0000000000e+00
 35         1.8696985273e-01
 36         0.0000000000e+00
 37         0.0000000000e+00
 38         0.0000000000e+00
 39        -1.9623366430e-01
 40         0.0000000000e+00
 41         0.0000000000e+00
 42        -5.0028510615e-01
 43         0.0000000000e+00
 44         0.0000000000e+00
 45         0.0000000000e+00
 46         4.3397518448e-01
 47         0.0000000000e+00
 48         0.0000000000e+00
 49        -4.5210099254e-01
 50         0.0000000000e+00
 51         0.0000000000e+00
 52         0.0000000000e+00
 53         8.7331641766e-01
 54         0.0000000000e+00
 55         0.0000000000e+00
 56        -5.0532507806e-01
 57         1.9325558643e-01
 58         1.6624340251e+00
 59        -6.6801616708e-02
 60         0.0000000000e+00
 61        -6.1606984650e-01
 62         3.9479236008e-01
 63         0.0000000000e+00
 64         7.4223625743e-01
 65        -7.3511689635e-01
 66         0.0000000000e+00
 67         6.3230222329e-01
 68        -4.4773513897e-01
 69         1.9511542682e-02
 70         0.0000000000e+00
 71         3.8392693859e-02
 72         2.5949759241e-01
 73         0.0000000000e+00
 74         1.6089480110e-02
 75         0.0000000000e+00
 76        -4.9174828861e-01
 77        -2.5762295406e-01
 78         0.0000000000e+00
 79         1.9102792434e-01
 80         0.0000000000e+00
 81         1.7696963449e-02
 82        -2.0708360209e-02
 83         0.0000000000e+00
 84         0.0000000000e+00
 85         1.4678128867e-01
 86         5.0532507806e-01
 87        -1.9325558643e-01
 88        -1.6624340251e+00
 89         6.6801616708e-02
 90         0.0000000000e+00
 91        -6.1606984650e-01
 92        -3.9479236008e-01
 93         0.0000000000e+00
 94         7.4223625743e-01
 95         7.3511689635e-01
 96         0.0000000000e+00
 97         6.3230222329e-01
 98         4.4773513897e-01
 99        -1.9511542682e-02
100         0.0000000000e+00
101         3.8392693859e-02
102        -2.5949759241e-01
103         0.0000000000e+00
104        -1.6089480110e-02
105         0.0000000000e+00
106        -4.9174828861e-01
107         2.5762295406e-01
108         0.0000000000e+00
109        -1.9102792434e-01
110         0.0000000000e+00
111         1.7696963449e-02
112         2.0708360209e-02
113         0.0000000000e+00
114         0.0000000000e+00
115         1.4678128867e-01
 Sym= A2
 Ene=         1.1413636258e+01
 Spin= Alpha
 Occup=         0.0000000000e+00
  1         0.0000000000e+00
  2         0.0000000000e+00
  3         0.0000000000e+00
  4         0.0000000000e+00
  5         0.0000000000e+00
  6         0.0000000000e+00
  7         0.0000000000e+00
  8         0.0000000000e+00
  9         0.0000000000e+00
 10         0.0000000000e+00
 11         0.0000000000e+00
 12         0.0000000000e+00
 13         0.0000000000e+00
 14         0.0000000000e+00
 15         0.0000000000e+00
 16         0.0000000000e+00
 17         0.0000000000e+00
 18         0.0000000000e+00
 19         0.0000000000e+00
 20         0.0000000000e+00
 21         0.0000000000e+00
 22         4.3762496408e-01
 23         0.0000000000e+00
 24         0.0000000000e+00
 25         0.0000000000e+00
 26         0.0000000000e+00
 27        -3.7815044593e-02
 28         0.0000000000e+00
 29         0.0000000000e+00
 30         0.0000000000e+00
 31         0.0000000000e+00
 32         6.9804628959e-01
 33         0.0000000000e+00
 34         0.0000000000e+00
 35         0.0000000000e+00
 36         0.0000000000e+00
 37        -1.7075705223e-01
 38         0.0000000000e+00
 39         0.0000000000e+00
 40         0.0000000000e+00
 41         0.0000000000e+00
 42         0.0000000000e+00
 43         0.0000000000e+00
 44         9.0602816638e-01
 45         0.0000000000e+00
 46         0.0000000000e+00
 47         0.0000000000e+00
 48         0.0000000000e+00
 49         0.0000000000e+00
 50         0.0000000000e+00
 51         1.0968710755e+00
 52         0.0000000000e+00
 53         0.0000000000e+00
 54         0.0000000000e+00
 55        -1.3760695039e-01
 56         0.0000000000e+00
 57         0.0000000000e+00
 58         0.0000000000e+00
 59         0.0000000000e+00
 60         8.8621010028e-02
 61         0.0000000000e+00
 62         0.0000000000e+00
 63         5.8114912895e-01
 64         0.0000000000e+00
 65         0.0000000000e+00
 66         1.7415453869e-01
 67         0.0000000000e+00
 68         0.0000000000e+00
 69         0.0000000000e+00
 70        -1.2561979809e-01
 71         0.0000000000e+00
 72         0.0000000000e+00
 73         4.8128161885e-01
 74         0.0000000000e+00
 75        -1.0351657811e-01
 76         0.0000000000e+00
 77         0.0000000000e+00
 78         2.0583673608e-01
 79         0.0000000000e+00
 80        -2.3140999755e-01
 81         0.0000000000e+00
 82         0.0000000000e+00
 83        -8.2691444927e-02
 84        -2.4821625523e-01
 85         0.0000000000e+00
 86         0.0000000000e+00
 87         0.0000000000e+00
 88         0.0000000000e+00
 89         0.0000000000e+00
 90        -8.8621010028e-02
 91         0.0000000000e+00
 92         0.0000000000e+00
 93        -5.8114912895e-01
 94         0.0000000000e+00
 95         0.0000000000e+00
 96        -1.7415453869e-01
 97         0.0000000000e+00
 98         0.0000000000e+00
 99         0.0000000000e+00
100         1.2561979809e-01
101         0.0000000000e+00
102         0.0000000000e+00
103         4.8128161885e-01
104         0.0000000000e+00
105         1.0351657811e-01
106         0.0000000000e+00
107         0.0000000000e+00
108         2.0583673608e-01
109         0.0000000000e+00
110         2.3140999755e-01
111         0.0000000000e+00
112         0.0000000000e+00
113        -8.2691444927e-02
114         2.4821625523e-01
115         0.0000000000e+00
 Sym= A1
 Ene=         1.1606960868e+01
 Spin= Alpha
 Occup=         0.0000000000e+00
  1         4.1977905436e-02
  2         6.2373905798e-02
  3         8.5117693331e-01
  4        -3.2306176539e+00
  5        -1.1567955344e+00
  6         0.0000000000e+00
  7         0.0000000000e+00
  8         5.6611051170e-01
  9         0.0000000000e+00
 10         0.0000000000e+00
 11        -8.0111770134e-01
 12         0.0000000000e+00
 13         0.0000000000e+00
 14        -1.6997039922e+00
 15         0.0000000000e+00
 16         0.0000000000e+00
 17        -4.0341868954e-01
 18        -1.8780123290e-01
 19         0.0000000000e+00
 20         0.0000000000e+00
 21         1.6386627314e-02
 22         0.0000000000e+00
 23        -7.2891010160e-02
 24         0.0000000000e+00
 25         0.0000000000e+00
 26         2.9393275528e-01
 27         0.0000000000e+00
 28        -4.1466859653e-01
 29         0.0000000000e+00
 30         0.0000000000e+00
 31         5.0391389665e-01
 32         0.0000000000e+00
 33         4.2167755847e-01
 34         0.0000000000e+00
 35         0.0000000000e+00
 36        -8.7252398645e-01
 37         0.0000000000e+00
 38         0.0000000000e+00
 39         0.0000000000e+00
 40        -7.1092440254e-02
 41         0.0000000000e+00
 42         0.0000000000e+00
 43         8.9962499478e-01
 44         0.0000000000e+00
 45         0.0000000000e+00
 46         0.0000000000e+00
 47         1.8747874165e-01
 48         0.0000000000e+00
 49         0.0000000000e+00
 50         3.5427395919e-01
 51         0.0000000000e+00
 52         0.0000000000e+00
 53         0.0000000000e+00
 54         7.9513440480e-02
 55         0.0000000000e+00
 56        -2.5582574607e-01
 57         1.6799486409e+00
 58         8.4309098351e-01
 59        -2.0883045818e-02
 60         0.0000000000e+00
 61        -8.2184066513e-02
 62         2.9090577096e-02
 63         0.0000000000e+00
 64         1.1142739616e+00
 65        -5.8430844366e-01
 66         0.0000000000e+00
 67         2.0796193638e-01
 68        -4.5465236238e-02
 69        -1.3827470396e-01
 70         0.0000000000e+00
 71        -1.5993422981e-01
 72        -1.1188632840e-01
 73         0.0000000000e+00
 74        -3.5872203235e-02
 75         0.0000000000e+00
 76        -2.0391520168e-01
 77        -2.8072804234e-01
 78         0.0000000000e+00
 79         1.6743169578e-01
 80         0.0000000000e+00
 81        -2.4670451198e-03
 82         8.4239433784e-02
 83         0.0000000000e+00
 84         0.0000000000e+00
 85        -8.0707041767e-02
 86        -2.5582574607e-01
 87         1.6799486409e+00
 88         8.4309098351e-01
 89        -2.0883045818e-02
 90         0.0000000000e+00
 91         8.2184066513e-02
 92         2.9090577096e-02
 93         0.0000000000e+00
 94        -1.1142739616e+00
 95        -5.8430844366e-01
 96         0.0000000000e+00
 97        -2.0796193638e-01
 98        -4.5465236238e-02
 99        -1.3827470396e-01
100         0.0000000000e+00
101         1.5993422981e-01
102        -1.1188632840e-01
103         0.0000000000e+00
104        -3.5872203235e-02
105         0.0000000000e+00
106         2.0391520168e-01
107        -2.8072804234e-01
108         0.0000000000e+00
109         1.6743169578e-01
110         0.0000000000e+00
111         2.4670451198e-03
112         8.4239433784e-02
113         0.0000000000e+00
114         0.0000000000e+00
115         8.0707041767e-02
 Sym= B1
 Ene=         1.1643257710e+01
 Spin= Alpha
 Occup=         0.0000000000e+00
  1         0.0000000000e+00
  2         0.0000000000e+00
  3         0.0000000000e+00
  4         0.0000000000e+00
  5         0.0000000000e+00
  6         1.6263709317e-01
  7         0.0000000000e+00
  8         0.0000000000e+00
  9        -2.4457621959e-02
 10         0.0000000000e+00
 11         0.0000000000e+00
 12        -1.3355613339e+00
 13         0.0000000000e+00
 14         0.0000000000e+00
 15        -2.5642319043e-01
 16         0.0000000000e+00
 17         0.0000000000e+00
 18         0.0000000000e+00
 19        -5.1194026605e-01
 20         0.0000000000e+00
 21         0.0000000000e+00
 22         0.0000000000e+00
 23         0.0000000000e+00
 24         1.0101997373e-01
 25         0.0000000000e+00
 26         0.0000000000e+00
 27         0.0000000000e+00
 28         0.0000000000e+00
 29        -8.7255915105e-01
 30         0.0000000000e+00
 31         0.0000000000e+00
 32         0.0000000000e+00
 33         0.0000000000e+00
 34         3.8092401460e-01
 35         0.0000000000e+00
 36         0.0000000000e+00
 37         0.0000000000e+00
 38        -3.7201482394e-01
 39         0.0000000000e+00
 40         0.0000000000e+00
 41        -3.0482811309e-01
 42         0.0000000000e+00
 43         0.0000000000e+00
 44         0.0000000000e+00
 45         9.9602329347e-01
 46         0.0000000000e+00
 47         0.0000000000e+00
 48         2.2333489387e-01
 49         0.0000000000e+00
 50         0.0000000000e+00
 51         0.0000000000e+00
 52         9.8291671392e-01
 53         0.0000000000e+00
 54         0.0000000000e+00
 55         0.0000000000e+00
 56         0.0000000000e+00
 57         0.0000000000e+00
 58         0.0000000000e+00
 59         0.0000000000e+00
 60         4.0302879043e-02
 61         0.0000000000e+00
 62         0.0000000000e+00
 63         7.8804765878e-01
 64         0.0000000000e+00
 65         0.0000000000e+00
 66         3.2691940999e-01
 67         0.0000000000e+00
 68         0.0000000000e+00
 69         0.0000000000e+00
 70        -3.7693991993e-01
 71         0.0000000000e+00
 72         0.0000000000e+00
 73         2.8868213518e-01
 74         0.0000000000e+00
 75        -2.6469800488e-01
 76         0.0000000000e+00
 77         0.0000000000e+00
 78         3.3746320821e-01
 79         0.0000000000e+00
 80         1.7803225334e-01
 81         0.0000000000e+00
 82         0.0000000000e+00
 83        -1.9954171465e-01
 84        -2.9067133209e-02
 85         0.0000000000e+00
 86         0.0000000000e+00
 87         0.0000000000e+00
 88         0.0000000000e+00
 89         0.0000000000e+00
 90         4.0302879043e-02
 91         0.0000000000e+00
 92         0.0000000000e+00
 93         7.8804765878e-01
 94         0.0000000000e+00
 95         0.0000000000e+00
 96         3.2691940999e-01
 97         0.0000000000e+00
 98         0.0000000000e+00
 99         0.0000000000e+00
100        -3.7693991993e-01
101         0.0000000000e+00
102         0.0000000000e+00
103        -2.8868213518e-01
104         0.0000000000e+00
105        -2.6469800488e-01
106         0.0000000000e+00
107         0.0000000000e+00
108        -3.3746320821e-01
109         0.0000000000e+00
110         1.7803225334e-01
111         0.0000000000e+00
112         0.0000000000e+00
113         1.9954171465e-01
114        -2.9067133209e-02
115         0.0000000000e+00
 Sym= B2
 Ene=         1.1705459373e+01
 Spin= Alpha
 Occup=         0.0000000000e+00
  1         0.0000000000e+00
  2         0.0000000000e+00
  3         0.0000000000e+00
  4         0.0000000000e+00
  5         0.0000000000e+00
  6         0.0000000000e+00
  7         4.1371209637e-01
  8         0.0000000000e+00
  9         0.0000000000e+00
 10        -7.8699544507e-01
 11         0.0000000000e+00
 12         0.0000000000e+00
 13        -1.8285950543e+00
 14         0.0000000000e+00
 15         0.0000000000e+00
 16        -3.7732749468e-01
 17         0.0000000000e+00
 18         0.0000000000e+00
 19         0.0000000000e+00
 20         1.1475068220e-01
 21         0.0000000000e+00
 22         0.0000000000e+00
 23         0.0000000000e+00
 24         0.0000000000e+00
 25        -5.8313794062e-01
 26         0.0000000000e+00
 27         0.0000000000e+00
 28         0.0000000000e+00
 29         0.0000000000e+00
 30        -5.1843760221e-01
 31         0.0000000000e+00
 32         0.0000000000e+00
 33         0.0000000000e+00
 34         0.0000000000e+00
 35         2.4374107974e-01
 36         0.0000000000e+00
 37         0.0000000000e+00
 38         0.0000000000e+00
 39        -1.0108616870e+00
 40         0.0000000000e+00
 41         0.0000000000e+00
 42        -2.3685254976e-02
 43         0.0000000000e+00
 44         0.0000000000e+00
 45         0.0000000000e+00
 46         7.1529473455e-01
 47         0.0000000000e+00
 48         0.0000000000e+00
 49         1.3747565789e-01
 50         0.0000000000e+00
 51         0.0000000000e+00
 52         0.0000000000e+00
 53        -3.0662047337e-02
 54         0.0000000000e+00
 55         0.0000000000e+00
 56         3.9477690727e-01
 57        -1.3635216951e+00
 58        -9.3892123126e-01
 59         3.0482067762e-02
 60         0.0000000000e+00
 61         2.6608880459e-01
 62        -2.3879514447e-01
 63         0.0000000000e+00
 64        -8.8501888925e-01
 65         9.7552980813e-01
 66         0.0000000000e+00
 67        -1.7138698679e-01
 68         2.4718509100e-01
 69        -3.8285676673e-02
 70         0.0000000000e+00
 71         1.0588825946e-01
 72        -3.8889527759e-03
 73         0.0000000000e+00
 74        -2.1801942912e-01
 75         0.0000000000e+00
 76         3.8034830388e-01
 77         2.1700679803e-01
 78         0.0000000000e+00
 79        -2.8087158749e-02
 80         0.0000000000e+00
 81        -1.1465369835e-01
 82        -1.4032460480e-01
 83         0.0000000000e+00
 84         0.0000000000e+00
 85         1.1863833265e-02
 86        -3.9477690727e-01
 87         1.3635216951e+00
 88         9.3892123126e-01
 89        -3.0482067762e-02
 90         0.0000000000e+00
 91         2.6608880459e-01
 92         2.3879514447e-01
 93         0.0000000000e+00
 94        -8.8501888925e-01
 95        -9.7552980813e-01
 96         0.0000000000e+00
 97        -1.7138698679e-01
 98        -2.4718509100e-01
 99         3.8285676673e-02
100         0.0000000000e+00
101         1.0588825946e-01
102         3.8889527759e-03
103         0.0000000000e+00
104         2.1801942912e-01
105         0.0000000000e+00
106         3.8034830388e-01
107        -2.1700679803e-01
108         0.0000000000e+00
109         2.8087158749e-02
110         0.0000000000e+00
111        -1.1465369835e-01
112         1.4032460480e-01
113         0.0000000000e+00
114         0.0000000000e+00
115         1.1863833265e-02
 Sym= B1
 Ene=         1.1853250127e+01
 Spin= Alpha
 Occup=         0.0000000000e+00
  1         0.0000000000e+00
  2         0.0000000000e+00
  3         0.0000000000e+00
  4         0.0000000000e+00
  5         0.0000000000e+00
  6         4.1453354159e-02
  7         0.0000000000e+00
  8         0.0000000000e+00
  9        -4.7437850121e-02
 10         0.0000000000e+00
 11         0.0000000000e+00
 12         2.8676424788e-02
 13         0.0000000000e+00
 14         0.0000000000e+00
 15         1.3434533332e-02
 16         0.0000000000e+00
 17         0.0000000000e+00
 18         0.0000000000e+00
 19        -8.4432845590e-02
 20         0.0000000000e+00
 21         0.0000000000e+00
 22         0.0000000000e+00
 23         0.0000000000e+00
 24         6.3625506813e-02
 25         0.0000000000e+00
 26         0.0000000000e+00
 27         0.0000000000e+00
 28         0.0000000000e+00
 29         1.8530448309e-01
 30         0.0000000000e+00
 31         0.0000000000e+00
 32         0.0000000000e+00
 33         0.0000000000e+00
 34        -1.0481251488e+00
 35         0.0000000000e+00
 36         0.0000000000e+00
 37         0.0000000000e+00
 38        -5.0998233791e-01
 39         0.0000000000e+00
 40         0.0000000000e+00
 41         7.2708671772e-01
 42         0.0000000000e+00
 43         0.0000000000e+00
 44         0.0000000000e+00
 45         4.6455885248e-01
 46         0.0000000000e+00
 47         0.0000000000e+00
 48         2.5626373506e-01
 49         0.0000000000e+00
 50         0.0000000000e+00
 51         0.0000000000e+00
 52         1.6443903576e-01
 53         0.0000000000e+00
 54         0.0000000000e+00
 55         0.0000000000e+00
 56         0.0000000000e+00
 57         0.0000000000e+00
 58         0.0000000000e+00
 59         0.0000000000e+00
 60         6.9479151010e-02
 61         0.0000000000e+00
 62         0.0000000000e+00
 63        -2.7423393115e-02
 64         0.0000000000e+00
 65         0.0000000000e+00
 66        -1.2095530149e-02
 67         0.0000000000e+00
 68         0.0000000000e+00
 69         0.0000000000e+00
 70        -5.2805259287e-02
 71         0.0000000000e+00
 72         0.0000000000e+00
 73         4.9585498888e-02
 74         0.0000000000e+00
 75        -1.8343878670e-01
 76         0.0000000000e+00
 77         0.0000000000e+00
 78        -1.8088621252e-01
 79         0.0000000000e+00
 80         1.0526334639e-01
 81         0.0000000000e+00
 82         0.0000000000e+00
 83        -5.6428801460e-02
 84         1.0885123452e-01
 85         0.0000000000e+00
 86         0.0000000000e+00
 87         0.0000000000e+00
 88         0.0000000000e+00
 89         0.0000000000e+00
 90         6.9479151010e-02
 91         0.0000000000e+00
 92         0.0000000000e+00
 93        -2.7423393115e-02
 94         0.0000000000e+00
 95         0.0000000000e+00
 96        -1.2095530149e-02
 97         0.0000000000e+00
 98         0.0000000000e+00
 99         0.0000000000e+00
100        -5.2805259287e-02
101         0.0000000000e+00
102         0.0000000000e+00
103        -4.9585498888e-02
104         0.0000000000e+00
105        -1.8343878670e-01
106         0.0000000000e+00
107         0.0000000000e+00
108         1.8088621252e-01
109         0.0000000000e+00
110         1.0526334639e-01
111         0.0000000000e+00
112         0.0000000000e+00
113         5.6428801460e-02
114         1.0885123452e-01
115         0.0000000000e+00
 Sym= A1
 Ene=         1.2203180427e+01
 Spin= Alpha
 Occup=         0.0000000000e+00
  1         5.1170285762e-02
  2         1.1527078460e-01
  3        -9.6200077552e-02
  4         3.5144379077e+00
  5         1.3053275501e+00
  6         0.0000000000e+00
  7         0.0000000000e+00
  8        -3.7538100488e-01
  9         0.0000000000e+00
 10         0.0000000000e+00
 11         1.0156258762e+00
 12         0.0000000000e+00
 13         0.0000000000e+00
 14         5.4933510569e-01
 15         0.0000000000e+00
 16         0.0000000000e+00
 17         1.6184513905e-01
 18        -1.2206057019e-01
 19         0.0000000000e+00
 20         0.0000000000e+00
 21         3.9737590586e-01
 22         0.0000000000e+00
 23         1.6076686642e-01
 24         0.0000000000e+00
 25         0.0000000000e+00
 26        -6.0103754838e-01
 27         0.0000000000e+00
 28        -5.9407012661e-01
 29         0.0000000000e+00
 30         0.0000000000e+00
 31        -3.1259385640e-01
 32         0.0000000000e+00
 33         6.5027843927e-01
 34         0.0000000000e+00
 35         0.0000000000e+00
 36         2.3332232635e-01
 37         0.0000000000e+00
 38         0.0000000000e+00
 39         0.0000000000e+00
 40        -3.4862103118e-01
 41         0.0000000000e+00
 42         0.0000000000e+00
 43         3.5196319999e-02
 44         0.0000000000e+00
 45         0.0000000000e+00
 46         0.0000000000e+00
 47         4.1228880659e-01
 48         0.0000000000e+00
 49         0.0000000000e+00
 50         5.4783262948e-01
 51         0.0000000000e+00
 52         0.0000000000e+00
 53         0.0000000000e+00
 54        -1.8033879148e-02
 55         0.0000000000e+00
 56         5.6449206355e-01
 57        -8.4754710439e-01
 58        -1.5687285706e+00
 59         5.6860407737e-02
 60         0.0000000000e+00
 61         5.5879413005e-01
 62        -5.1300864537e-01
 63         0.0000000000e+00
 64        -9.7622075223e-01
 65         1.2668686643e+00
 66         0.0000000000e+00
 67        -4.3768018193e-01
 68         5.3729028491e-01
 69        -7.8915518999e-02
 70         0.0000000000e+00
 71        -8.3549564954e-02
 72        -3.3844054608e-03
 73         0.0000000000e+00
 74        -1.9642278776e-01
 75         0.0000000000e+00
 76         7.3869961723e-01
 77         2.9224609416e-01
 78         0.0000000000e+00
 79        -3.2905093266e-03
 80         0.0000000000e+00
 81        -3.6973664177e-02
 82        -1.4179978135e-01
 83         0.0000000000e+00
 84         0.0000000000e+00
 85         1.6033076310e-01
 86         5.6449206355e-01
 87        -8.4754710439e-01
 88        -1.5687285706e+00
 89         5.6860407737e-02
 90         0.0000000000e+00
 91        -5.5879413005e-01
 92        -5.1300864537e-01
 93         0.0000000000e+00
 94         9.7622075223e-01
 95         1.2668686643e+00
 96         0.0000000000e+00
 97         4.3768018193e-01
 98         5.3729028491e-01
 99        -7.8915518999e-02
100         0.0000000000e+00
101         8.3549564954e-02
102        -3.3844054608e-03
103         0.0000000000e+00
104        -1.9642278776e-01
105         0.0000000000e+00
106        -7.3869961723e-01
107         2.9224609416e-01
108         0.0000000000e+00
109        -3.2905093266e-03
110         0.0000000000e+00
111         3.6973664177e-02
112        -1.4179978135e-01
113         0.0000000000e+00
114         0.0000000000e+00
115        -1.6033076310e-01
 Sym= B1
 Ene=         1.2338370529e+01
 Spin= Alpha
 Occup=         0.0000000000e+00
  1         0.0000000000e+00
  2         0.0000000000e+00
  3         0.0000000000e+00
  4         0.0000000000e+00
  5         0.0000000000e+00
  6         4.1007580473e-01
  7         0.0000000000e+00
  8         0.0000000000e+00
  9        -6.7553386750e-01
 10         0.0000000000e+00
 11         0.0000000000e+00
 12         5.4365851954e-01
 13         0.0000000000e+00
 14         0.0000000000e+00
 15         5.0395657442e-02
 16         0.0000000000e+00
 17         0.0000000000e+00
 18         0.0000000000e+00
 19        -6.0290082497e-01
 20         0.0000000000e+00
 21         0.0000000000e+00
 22         0.0000000000e+00
 23         0.0000000000e+00
 24         3.0181896733e-01
 25         0.0000000000e+00
 26         0.0000000000e+00
 27         0.0000000000e+00
 28         0.0000000000e+00
 29         1.4793710156e-01
 30         0.0000000000e+00
 31         0.0000000000e+00
 32         0.0000000000e+00
 33         0.0000000000e+00
 34        -3.6601100067e-01
 35         0.0000000000e+00
 36         0.0000000000e+00
 37         0.0000000000e+00
 38         9.3800678481e-01
 39         0.0000000000e+00
 40         0.0000000000e+00
 41         2.5449253138e-01
 42         0.0000000000e+00
 43         0.0000000000e+00
 44         0.0000000000e+00
 45        -4.3213117025e-01
 46         0.0000000000e+00
 47         0.0000000000e+00
 48         9.3481938912e-02
 49         0.0000000000e+00
 50         0.0000000000e+00
 51         0.0000000000e+00
 52         7.0788285432e-02
 53         0.0000000000e+00
 54         0.0000000000e+00
 55         0.0000000000e+00
 56         0.0000000000e+00
 57         0.0000000000e+00
 58         0.0000000000e+00
 59         0.0000000000e+00
 60         4.0267456570e-02
 61         0.0000000000e+00
 62         0.0000000000e+00
 63        -1.6787701359e-01
 64         0.0000000000e+00
 65         0.0000000000e+00
 66        -9.8384930063e-02
 67         0.0000000000e+00
 68         0.0000000000e+00
 69         0.0000000000e+00
 70        -1.4789129974e-01
 71         0.0000000000e+00
 72         0.0000000000e+00
 73         1.3174011541e-01
 74         0.0000000000e+00
 75         9.4911828887e-02
 76         0.0000000000e+00
 77         0.0000000000e+00
 78        -1.3698506237e-01
 79         0.0000000000e+00
 80         8.3217128289e-02
 81         0.0000000000e+00
 82         0.0000000000e+00
 83        -2.0471172960e-01
 84        -6.0411976191e-02
 85         0.0000000000e+00
 86         0.0000000000e+00
 87         0.0000000000e+00
 88         0.0000000000e+00
 89         0.0000000000e+00
 90         4.0267456570e-02
 91         0.0000000000e+00
 92         0.0000000000e+00
 93        -1.6787701359e-01
 94         0.0000000000e+00
 95         0.0000000000e+00
 96        -9.8384930063e-02
 97         0.0000000000e+00
 98         0.0000000000e+00
 99         0.0000000000e+00
100        -1.4789129974e-01
101         0.0000000000e+00
102         0.0000000000e+00
103        -1.3174011541e-01
104         0.0000000000e+00
105         9.4911828887e-02
106         0.0000000000e+00
107         0.0000000000e+00
108         1.3698506237e-01
109         0.0000000000e+00
110         8.3217128289e-02
111         0.0000000000e+00
112         0.0000000000e+00
113         2.0471172960e-01
114        -6.0411976191e-02
115         0.0000000000e+00
 Sym= A1
 Ene=         1.2432143562e+01
 Spin= Alpha
 Occup=         0.0000000000e+00
  1         4.7664611319e-02
  2         5.7433353748e-02
  3         3.1752093914e-01
  4        -8.5444375801e-01
  5        -8.0888328322e-01
  6         0.0000000000e+00
  7         0.0000000000e+00
  8         4.7477575400e-01
  9         0.0000000000e+00
 10         0.0000000000e+00
 11        -7.3167475398e-01
 12         0.0000000000e+00
 13         0.0000000000e+00
 14         2.0740114944e-01
 15         0.0000000000e+00
 16         0.0000000000e+00
 17        -1.0696493767e-01
 18        -4.6705602817e-01
 19         0.0000000000e+00
 20         0.0000000000e+00
 21         2.0857606226e-01
 22         0.0000000000e+00
 23         2.2020259139e-01
 24         0.0000000000e+00
 25         0.0000000000e+00
 26        -1.1778383072e-01
 27         0.0000000000e+00
 28         6.6016262324e-01
 29         0.0000000000e+00
 30         0.0000000000e+00
 31         5.8876901392e-01
 32         0.0000000000e+00
 33        -8.1856969921e-01
 34         0.0000000000e+00
 35         0.0000000000e+00
 36         9.2277892646e-02
 37         0.0000000000e+00
 38         0.0000000000e+00
 39         0.0000000000e+00
 40         1.0389531381e+00
 41         0.0000000000e+00
 42         0.0000000000e+00
 43         3.8622744936e-01
 44         0.0000000000e+00
 45         0.0000000000e+00
 46         0.0000000000e+00
 47         6.1467576365e-01
 48         0.0000000000e+00
 49         0.0000000000e+00
 50         4.0165342847e-01
 51         0.0000000000e+00
 52         0.0000000000e+00
 53         0.0000000000e+00
 54         1.4281320534e-01
 55         0.0000000000e+00
 56         2.3591168307e-01
 57         3.9983308425e-01
 58         3.9839003692e-01
 59         3.8572541391e-02
 60         0.0000000000e+00
 61         3.6948411262e-01
 62        -9.7842844238e-02
 63         0.0000000000e+00
 64        -2.9946221358e-01
 65        -4.0775626160e-01
 66         0.0000000000e+00
 67         7.4739278336e-02
 68        -2.5966945828e-01
 69        -1.9633946016e-01
 70         0.0000000000e+00
 71        -1.8099362485e-01
 72        -1.9660210960e-02
 73         0.0000000000e+00
 74         1.5673404433e-01
 75         0.0000000000e+00
 76        -1.6043894262e-01
 77         2.1026317812e-01
 78         0.0000000000e+00
 79         3.1579950960e-01
 80         0.0000000000e+00
 81        -3.7097748735e-02
 82         8.0518224840e-02
 83         0.0000000000e+00
 84         0.0000000000e+00
 85         8.5575154232e-02
 86         2.3591168307e-01
 87         3.9983308425e-01
 88         3.9839003692e-01
 89         3.8572541391e-02
 90         0.0000000000e+00
 91        -3.6948411262e-01
 92        -9.7842844238e-02
 93         0.0000000000e+00
 94         2.9946221358e-01
 95        -4.0775626160e-01
 96         0.0000000000e+00
 97        -7.4739278336e-02
 98        -2.5966945828e-01
 99        -1.9633946016e-01
100         0.0000000000e+00
101         1.8099362485e-01
102        -1.9660210960e-02
103         0.0000000000e+00
104         1.5673404433e-01
105         0.0000000000e+00
106         1.6043894262e-01
107         2.1026317812e-01
108         0.0000000000e+00
109         3.1579950960e-01
110         0.0000000000e+00
111         3.7097748735e-02
112         8.0518224840e-02
113         0.0000000000e+00
114         0.0000000000e+00
115        -8.5575154232e-02
 Sym= A2
 Ene=         1.2438173128e+01
 Spin= Alpha
 Occup=         0.0000000000e+00
  1         0.0000000000e+00
  2         0.0000000000e+00
  3         0.0000000000e+00
  4         0.0000000000e+00
  5         0.0000000000e+00
  6         0.0000000000e+00
  7         0.0000000000e+00
  8         0.0000000000e+00
  9         0.0000000000e+00
 10         0.0000000000e+00
 11         0.0000000000e+00
 12         0.0000000000e+00
 13         0.0000000000e+00
 14         0.0000000000e+00
 15         0.0000000000e+00
 16         0.0000000000e+00
 17         0.0000000000e+00
 18         0.0000000000e+00
 19         0.0000000000e+00
 20         0.0000000000e+00
 21         0.0000000000e+00
 22         4.6939018613e-01
 23         0.0000000000e+00
 24         0.0000000000e+00
 25         0.0000000000e+00
 26         0.0000000000e+00
 27        -2.2903616264e-01
 28         0.0000000000e+00
 29         0.0000000000e+00
 30         0.0000000000e+00
 31         0.0000000000e+00
 32        -4.9133086524e-01
 33         0.0000000000e+00
 34         0.0000000000e+00
 35         0.0000000000e+00
 36         0.0000000000e+00
 37         1.1523034502e+00
 38         0.0000000000e+00
 39         0.0000000000e+00
 40         0.0000000000e+00
 41         0.0000000000e+00
 42         0.0000000000e+00
 43         0.0000000000e+00
 44        -8.2020094961e-01
 45         0.0000000000e+00
 46         0.0000000000e+00
 47         0.0000000000e+00
 48         0.0000000000e+00
 49         0.0000000000e+00
 50         0.0000000000e+00
 51        -8.8675778172e-02
 52         0.0000000000e+00
 53         0.0000000000e+00
 54         0.0000000000e+00
 55         6.6469165221e-02
 56         0.0000000000e+00
 57         0.0000000000e+00
 58         0.0000000000e+00
 59         0.0000000000e+00
 60         3.3474190675e-02
 61         0.0000000000e+00
 62         0.0000000000e+00
 63        -3.7804441362e-01
 64         0.0000000000e+00
 65         0.0000000000e+00
 66        -1.6603477659e-01
 67         0.0000000000e+00
 68         0.0000000000e+00
 69         0.0000000000e+00
 70        -7.4024708196e-02
 71         0.0000000000e+00
 72         0.0000000000e+00
 73         7.3256691127e-02
 74         0.0000000000e+00
 75         1.7858828419e-01
 76         0.0000000000e+00
 77         0.0000000000e+00
 78        -2.1598284133e-01
 79         0.0000000000e+00
 80         5.0414757443e-02
 81         0.0000000000e+00
 82         0.0000000000e+00
 83        -9.9694476201e-02
 84        -1.2479848799e-01
 85         0.0000000000e+00
 86         0.0000000000e+00
 87         0.0000000000e+00
 88         0.0000000000e+00
 89         0.0000000000e+00
 90        -3.3474190675e-02
 91         0.0000000000e+00
 92         0.0000000000e+00
 93         3.7804441362e-01
 94         0.0000000000e+00
 95         0.0000000000e+00
 96         1.6603477659e-01
 97         0.0000000000e+00
 98         0.0000000000e+00
 99         0.0000000000e+00
100         7.4024708196e-02
101         0.0000000000e+00
102         0.0000000000e+00
103         7.3256691127e-02
104         0.0000000000e+00
105        -1.7858828419e-01
106         0.0000000000e+00
107         0.0000000000e+00
108        -2.1598284133e-01
109         0.0000000000e+00
110        -5.0414757443e-02
111         0.0000000000e+00
112         0.0000000000e+00
113        -9.9694476201e-02
114         1.2479848799e-01
115         0.0000000000e+00
 Sym= B2
 Ene=         1.2452229016e+01
 Spin= Alpha
 Occup=         0.0000000000e+00
  1         0.0000000000e+00
  2         0.0000000000e+00
  3         0.0000000000e+00
  4         0.0000000000e+00
  5         0.0000000000e+00
  6         0.0000000000e+00
  7         2.0124547061e-01
  8         0.0000000000e+00
  9         0.0000000000e+00
 10        -6.3144266720e-01
 11         0.0000000000e+00
 12         0.0000000000e+00
 13        -1.7002742226e-01
 14         0.0000000000e+00
 15         0.0000000000e+00
 16        -2.3603012068e-01
 17         0.0000000000e+00
 18         0.0000000000e+00
 19         0.0000000000e+00
 20         1.0535041473e-01
 21         0.0000000000e+00
 22         0.0000000000e+00
 23         0.0000000000e+00
 24         0.0000000000e+00
 25        -3.8875609237e-01
 26         0.0000000000e+00
 27         0.0000000000e+00
 28         0.0000000000e+00
 29         0.0000000000e+00
 30        -6.7478051509e-01
 31         0.0000000000e+00
 32         0.0000000000e+00
 33         0.0000000000e+00
 34         0.0000000000e+00
 35         9.1599230299e-01
 36         0.0000000000e+00
 37         0.0000000000e+00
 38         0.0000000000e+00
 39         3.7983557873e-01
 40         0.0000000000e+00
 41         0.0000000000e+00
 42        -1.3307636140e+00
 43         0.0000000000e+00
 44         0.0000000000e+00
 45         0.0000000000e+00
 46        -6.1338902862e-01
 47         0.0000000000e+00
 48         0.0000000000e+00
 49        -7.2896905722e-01
 50         0.0000000000e+00
 51         0.0000000000e+00
 52         0.0000000000e+00
 53        -3.6351933084e-01
 54         0.0000000000e+00
 55         0.0000000000e+00
 56         2.5758687877e-01
 57        -7.6719096629e-01
 58        -6.5329197525e-01
 59         2.2653540890e-03
 60         0.0000000000e+00
 61         1.3658112283e-01
 62        -2.8945915117e-01
 63         0.0000000000e+00
 64        -1.0161470280e+00
 65        -5.8716365534e-02
 66         0.0000000000e+00
 67        -2.5067295761e-01
 68         4.9628291548e-02
 69         2.7443347905e-01
 70         0.0000000000e+00
 71        -7.9962295417e-02
 72         1.8752696470e-01
 73         0.0000000000e+00
 74         3.2124735238e-01
 75         0.0000000000e+00
 76         2.8088774431e-01
 77         2.1675011757e-01
 78         0.0000000000e+00
 79        -8.3592570203e-02
 80         0.0000000000e+00
 81        -6.2465403625e-02
 82        -1.2089651215e-01
 83         0.0000000000e+00
 84         0.0000000000e+00
 85        -3.2959183510e-02
 86        -2.5758687877e-01
 87         7.6719096629e-01
 88         6.5329197525e-01
 89        -2.2653540890e-03
 90         0.0000000000e+00
 91         1.3658112283e-01
 92         2.8945915117e-01
 93         0.0000000000e+00
 94        -1.0161470280e+00
 95         5.8716365534e-02
 96         0.0000000000e+00
 97        -2.5067295761e-01
 98        -4.9628291548e-02
 99        -2.7443347905e-01
100         0.0000000000e+00
101        -7.9962295417e-02
102        -1.8752696470e-01
103         0.0000000000e+00
104        -3.2124735238e-01
105         0.0000000000e+00
106         2.8088774431e-01
107        -2.1675011757e-01
108         0.0000000000e+00
109         8.3592570203e-02
110         0.0000000000e+00
111        -6.2465403625e-02
112         1.2089651215e-01
113         0.0000000000e+00
114         0.0000000000e+00
115        -3.2959183510e-02
 Sym= A1
 Ene=         1.3629126031e+01
 Spin= Alpha
 Occup=         0.0000000000e+00
  1         1.1195087077e-01
  2        -1.1034352304e-01
  3        -1.1098273236e+00
  4        -1.1289888094e+00
  5         4.4242415451e-02
  6         0.0000000000e+00
  7         0.0000000000e+00
  8         4.0168600743e-01
  9         0.0000000000e+00
 10         0.0000000000e+00
 11        -1.3069218045e+00
 12         0.0000000000e+00
 13         0.0000000000e+00
 14         8.2866705282e-01
 15         0.0000000000e+00
 16         0.0000000000e+00
 17        -1.3976450137e-01
 18        -5.2840301939e-01
 19         0.0000000000e+00
 20         0.0000000000e+00
 21         8.4536267405e-01
 22         0.0000000000e+00
 23         5.8109627599e-01
 24         0.0000000000e+00
 25         0.0000000000e+00
 26        -3.4847728720e-01
 27         0.0000000000e+00
 28         2.2481849172e-02
 29         0.0000000000e+00
 30         0.0000000000e+00
 31        -1.9408524961e-01
 32         0.0000000000e+00
 33         3.1650139499e-01
 34         0.0000000000e+00
 35         0.0000000000e+00
 36         5.1489051559e-01
 37         0.0000000000e+00
 38         0.0000000000e+00
 39         0.0000000000e+00
 40        -2.8799544325e-01
 41         0.0000000000e+00
 42         0.0000000000e+00
 43        -7.3257328512e-01
 44         0.0000000000e+00
 45         0.0000000000e+00
 46         0.0000000000e+00
 47        -2.6837134915e-01
 48         0.0000000000e+00
 49         0.0000000000e+00
 50        -4.2536051523e-01
 51         0.0000000000e+00
 52         0.0000000000e+00
 53         0.0000000000e+00
 54         1.1228176524e-01
 55         0.0000000000e+00
 56        -5.0211502073e-01
 57        -2.5999378186e-01
 58         8.4189811182e-01
 59        -1.1660644130e-01
 60         0.0000000000e+00
 61        -4.6636689102e-01
 62         4.0210540093e-01
 63         0.0000000000e+00
 64         5.6360977943e-01
 65        -6.4791946339e-01
 66         0.0000000000e+00
 67         2.7681477424e-01
 68        -2.3392769079e-01
 69         1.1401650722e-01
 70         0.0000000000e+00
 71        -1.8651346929e-01
 72        -5.8150299624e-02
 73         0.0000000000e+00
 74         1.2500689905e-01
 75         0.0000000000e+00
 76        -4.9877037470e-01
 77        -2.5735275451e-01
 78         0.0000000000e+00
 79         6.8698727010e-02
 80         0.0000000000e+00
 81         2.3854359213e-01
 82         2.6867288155e-01
 83         0.0000000000e+00
 84         0.0000000000e+00
 85        -8.7306738329e-02
 86        -5.0211502073e-01
 87        -2.5999378186e-01
 88         8.4189811182e-01
 89        -1.1660644130e-01
 90         0.0000000000e+00
 91         4.6636689102e-01
 92         4.0210540093e-01
 93         0.0000000000e+00
 94        -5.6360977943e-01
 95        -6.4791946339e-01
 96         0.0000000000e+00
 97        -2.7681477424e-01
 98        -2.3392769079e-01
 99         1.1401650722e-01
100         0.0000000000e+00
101         1.8651346929e-01
102        -5.8150299624e-02
103         0.0000000000e+00
104         1.2500689905e-01
105         0.0000000000e+00
106         4.9877037470e-01
107        -2.5735275451e-01
108         0.0000000000e+00
109         6.8698727010e-02
110         0.0000000000e+00
111        -2.3854359213e-01
112         2.6867288155e-01
113         0.0000000000e+00
114         0.0000000000e+00
115         8.7306738329e-02
 Sym= B2
 Ene=         1.3820656708e+01
 Spin= Alpha
 Occup=         0.0000000000e+00
  1         0.0000000000e+00
  2         0.0000000000e+00
  3         0.0000000000e+00
  4         0.0000000000e+00
  5         0.0000000000e+00
  6         0.0000000000e+00
  7         1.7041975967e-01
  8         0.0000000000e+00
  9         0.0000000000e+00
 10         2.3281637417e-01
 11         0.0000000000e+00
 12         0.0000000000e+00
 13        -3.0934192304e+00
 14         0.0000000000e+00
 15         0.0000000000e+00
 16        -3.0652664647e-01
 17         0.0000000000e+00
 18         0.0000000000e+00
 19         0.0000000000e+00
 20         7.8186514508e-02
 21         0.0000000000e+00
 22         0.0000000000e+00
 23         0.0000000000e+00
 24         0.0000000000e+00
 25         1.1344999628e-01
 26         0.0000000000e+00
 27         0.0000000000e+00
 28         0.0000000000e+00
 29         0.0000000000e+00
 30        -4.2535476449e-01
 31         0.0000000000e+00
 32         0.0000000000e+00
 33         0.0000000000e+00
 34         0.0000000000e+00
 35         6.5666909780e-01
 36         0.0000000000e+00
 37         0.0000000000e+00
 38         0.0000000000e+00
 39         2.4842330927e-01
 40         0.0000000000e+00
 41         0.0000000000e+00
 42         1.0956382692e+00
 43         0.0000000000e+00
 44         0.0000000000e+00
 45         0.0000000000e+00
 46         8.5098153055e-01
 47         0.0000000000e+00
 48         0.0000000000e+00
 49         1.2017507497e+00
 50         0.0000000000e+00
 51         0.0000000000e+00
 52         0.0000000000e+00
 53         4.8931026865e-01
 54         0.0000000000e+00
 55         0.0000000000e+00
 56         2.1717176926e-02
 57        -9.8911379052e-01
 58        -3.9471652609e-01
 59        -1.4444842496e-02
 60         0.0000000000e+00
 61        -2.4802953683e-01
 62         5.8501194551e-02
 63         0.0000000000e+00
 64         7.1064975914e-01
 65         1.3178692739e+00
 66         0.0000000000e+00
 67         1.1942017141e-01
 68         3.5193826033e-01
 69        -6.9164141831e-01
 70         0.0000000000e+00
 71         2.2159990455e-01
 72        -3.2756828742e-01
 73         0.0000000000e+00
 74        -7.9882680528e-01
 75         0.0000000000e+00
 76         1.6713984013e-01
 77        -5.5270373208e-01
 78         0.0000000000e+00
 79         3.5947057909e-01
 80         0.0000000000e+00
 81        -5.9503439228e-01
 82         1.3902064936e-01
 83         0.0000000000e+00
 84         0.0000000000e+00
 85        -3.2910229836e-01
 86        -2.1717176926e-02
 87         9.8911379052e-01
 88         3.9471652609e-01
 89         1.4444842496e-02
 90         0.0000000000e+00
 91        -2.4802953683e-01
 92        -5.8501194551e-02
 93         0.0000000000e+00
 94         7.1064975914e-01
 95        -1.3178692739e+00
 96         0.0000000000e+00
 97         1.1942017141e-01
 98        -3.5193826033e-01
 99         6.9164141831e-01
100         0.0000000000e+00
101         2.2159990455e-01
102         3.2756828742e-01
103         0.0000000000e+00
104         7.9882680528e-01
105         0.0000000000e+00
106         1.6713984013e-01
107         5.5270373208e-01
108         0.0000000000e+00
109        -3.5947057909e-01
110         0.0000000000e+00
111        -5.9503439228e-01
112        -1.3902064936e-01
113         0.0000000000e+00
114         0.0000000000e+00
115        -3.2910229836e-01
 Sym= B1
 Ene=         1.4293952841e+01
 Spin= Alpha
 Occup=         0.0000000000e+00
  1         0.0000000000e+00
  2         0.0000000000e+00
  3         0.0000000000e+00
  4         0.0000000000e+00
  5         0.0000000000e+00
  6         3.2122977334e-01
  7         0.0000000000e+00
  8         0.0000000000e+00
  9        -3.1726633624e-01
 10         0.0000000000e+00
 11         0.0000000000e+00
 12        -2.2796551885e+00
 13         0.0000000000e+00
 14         0.0000000000e+00
 15        -3.9084735599e-02
 16         0.0000000000e+00
 17         0.0000000000e+00
 18         0.0000000000e+00
 19         1.1997354938e+00
 20         0.0000000000e+00
 21         0.0000000000e+00
 22         0.0000000000e+00
 23         0.0000000000e+00
 24        -1.8288899070e+00
 25         0.0000000000e+00
 26         0.0000000000e+00
 27         0.0000000000e+00
 28         0.0000000000e+00
 29        -6.1283223303e-01
 30         0.0000000000e+00
 31         0.0000000000e+00
 32         0.0000000000e+00
 33         0.0000000000e+00
 34        -1.1585923282e-01
 35         0.0000000000e+00
 36         0.0000000000e+00
 37         0.0000000000e+00
 38         3.0668291305e-01
 39         0.0000000000e+00
 40         0.0000000000e+00
 41        -3.6566838759e-01
 42         0.0000000000e+00
 43         0.0000000000e+00
 44         0.0000000000e+00
 45         8.9555963624e-01
 46         0.0000000000e+00
 47         0.0000000000e+00
 48         3.9752999227e-02
 49         0.0000000000e+00
 50         0.0000000000e+00
 51         0.0000000000e+00
 52         8.5410370815e-01
 53         0.0000000000e+00
 54         0.0000000000e+00
 55         0.0000000000e+00
 56         0.0000000000e+00
 57         0.0000000000e+00
 58         0.0000000000e+00
 59         0.0000000000e+00
 60        -1.8513155063e-01
 61         0.0000000000e+00
 62         0.0000000000e+00
 63         1.3878811307e+00
 64         0.0000000000e+00
 65         0.0000000000e+00
 66         2.6757430739e-01
 67         0.0000000000e+00
 68         0.0000000000e+00
 69         0.0000000000e+00
 70        -3.7631844088e-01
 71         0.0000000000e+00
 72         0.0000000000e+00
 73         4.7804180952e-01
 74         0.0000000000e+00
 75        -5.5113214732e-01
 76         0.0000000000e+00
 77         0.0000000000e+00
 78         7.2191787978e-01
 79         0.0000000000e+00
 80         1.4599140790e-01
 81         0.0000000000e+00
 82         0.0000000000e+00
 83        -5.0486973847e-01
 84        -4.2275535047e-01
 85         0.0000000000e+00
 86         0.0000000000e+00
 87         0.0000000000e+00
 88         0.0000000000e+00
 89         0.0000000000e+00
 90        -1.8513155063e-01
 91         0.0000000000e+00
 92         0.0000000000e+00
 93         1.3878811307e+00
 94         0.0000000000e+00
 95         0.0000000000e+00
 96         2.6757430739e-01
 97         0.0000000000e+00
 98         0.0000000000e+00
 99         0.0000000000e+00
100        -3.7631844088e-01
101         0.0000000000e+00
102         0.0000000000e+00
103        -4.7804180952e-01
104         0.0000000000e+00
105        -5.5113214732e-01
106         0.0000000000e+00
107         0.0000000000e+00
108        -7.2191787978e-01
109         0.0000000000e+00
110         1.4599140790e-01
111         0.0000000000e+00
112         0.0000000000e+00
113         5.0486973847e-01
114        -4.2275535047e-01
115         0.0000000000e+00
 Sym= A2
 Ene=         1.4645654838e+01
 Spin= Alpha
 Occup=         0.0000000000e+00
  1         0.0000000000e+00
  2         0.0000000000e+00
  3         0.0000000000e+00
  4         0.0000000000e+00
  5         0.0000000000e+00
  6         0.0000000000e+00
  7         0.0000000000e+00
  8         0.0000000000e+00
  9         0.0000000000e+00
 10         0.0000000000e+00
 11         0.0000000000e+00
 12         0.0000000000e+00
 13         0.0000000000e+00
 14         0.0000000000e+00
 15         0.0000000000e+00
 16         0.0000000000e+00
 17         0.0000000000e+00
 18         0.0000000000e+00
 19         0.0000000000e+00
 20         0.0000000000e+00
 21         0.0000000000e+00
 22         1.3216404087e+00
 23         0.0000000000e+00
 24         0.0000000000e+00
 25         0.0000000000e+00
 26         0.0000000000e+00
 27        -2.1644543173e+00
 28         0.0000000000e+00
 29         0.0000000000e+00
 30         0.0000000000e+00
 31         0.0000000000e+00
 32        -8.3405262757e-01
 33         0.0000000000e+00
 34         0.0000000000e+00
 35         0.0000000000e+00
 36         0.0000000000e+00
 37        -3.6972723586e-01
 38         0.0000000000e+00
 39         0.0000000000e+00
 40         0.0000000000e+00
 41         0.0000000000e+00
 42         0.0000000000e+00
 43         0.0000000000e+00
 44        -1.1780995769e+00
 45         0.0000000000e+00
 46         0.0000000000e+00
 47         0.0000000000e+00
 48         0.0000000000e+00
 49         0.0000000000e+00
 50         0.0000000000e+00
 51        -5.1745710087e-01
 52         0.0000000000e+00
 53         0.0000000000e+00
 54         0.0000000000e+00
 55         5.0379215945e-01
 56         0.0000000000e+00
 57         0.0000000000e+00
 58         0.0000000000e+00
 59         0.0000000000e+00
 60         1.6913991132e-01
 61         0.0000000000e+00
 62         0.0000000000e+00
 63        -1.3730689893e+00
 64         0.0000000000e+00
 65         0.0000000000e+00
 66        -2.8092230172e-01
 67         0.0000000000e+00
 68         0.0000000000e+00
 69         0.0000000000e+00
 70         3.6451349056e-01
 71         0.0000000000e+00
 72         0.0000000000e+00
 73        -4.8280372429e-01
 74         0.0000000000e+00
 75         5.7239652825e-01
 76         0.0000000000e+00
 77         0.0000000000e+00
 78        -7.1073461996e-01
 79         0.0000000000e+00
 80        -1.4801156538e-01
 81         0.0000000000e+00
 82         0.0000000000e+00
 83         5.3563365474e-01
 84         3.9938794342e-01
 85         0.0000000000e+00
 86         0.0000000000e+00
 87         0.0000000000e+00
 88         0.0000000000e+00
 89         0.0000000000e+00
 90        -1.6913991132e-01
 91         0.0000000000e+00
 92         0.0000000000e+00
 93         1.3730689893e+00
 94         0.0000000000e+00
 95         0.0000000000e+00
 96         2.8092230172e-01
 97         0.0000000000e+00
 98         0.0000000000e+00
 99         0.0000000000e+00
100        -3.6451349056e-01
101         0.0000000000e+00
102         0.0000000000e+00
103        -4.8280372429e-01
104         0.0000000000e+00
105        -5.7239652825e-01
106         0.0000000000e+00
107         0.0000000000e+00
108        -7.1073461996e-01
109         0.0000000000e+00
110         1.4801156538e-01
111         0.0000000000e+00
112         0.0000000000e+00
113         5.3563365474e-01
114        -3.9938794342e-01
115         0.0000000000e+00
 Sym= A1
 Ene=         1.4688559319e+01
 Spin= Alpha
 Occup=         0.0000000000e+00
  1         8.1672025572e-02
  2         6.7310609664e-02
  3         4.4111969029e-01
  4        -2.1905246728e+00
  5        -8.2710674027e-01
  6         0.0000000000e+00
  7         0.0000000000e+00
  8         4.1604091130e-01
  9         0.0000000000e+00
 10         0.0000000000e+00
 11        -6.1375324072e-01
 12         0.0000000000e+00
 13         0.0000000000e+00
 14        -2.6794742805e+00
 15         0.0000000000e+00
 16         0.0000000000e+00
 17        -2.6414636285e-01
 18         1.2605749508e+00
 19         0.0000000000e+00
 20         0.0000000000e+00
 21         5.6275516871e-01
 22         0.0000000000e+00
 23        -2.1351947576e+00
 24         0.0000000000e+00
 25         0.0000000000e+00
 26        -7.3047612966e-01
 27         0.0000000000e+00
 28        -1.0105076350e+00
 29         0.0000000000e+00
 30         0.0000000000e+00
 31        -3.3821677880e-01
 32         0.0000000000e+00
 33        -4.7882583223e-02
 34         0.0000000000e+00
 35         0.0000000000e+00
 36         1.8012389931e-01
 37         0.0000000000e+00
 38         0.0000000000e+00
 39         0.0000000000e+00
 40        -6.6021785986e-01
 41         0.0000000000e+00
 42         0.0000000000e+00
 43        -2.0649285578e-02
 44         0.0000000000e+00
 45         0.0000000000e+00
 46         0.0000000000e+00
 47         1.0717737619e-01
 48         0.0000000000e+00
 49         0.0000000000e+00
 50         4.7829156543e-01
 51         0.0000000000e+00
 52         0.0000000000e+00
 53         0.0000000000e+00
 54         2.2283024723e-01
 55         0.0000000000e+00
 56        -2.7685302083e-01
 57         9.2688866999e-01
 58         7.2701145098e-01
 59        -2.2454123154e-02
 60         0.0000000000e+00
 61        -1.7734366508e-01
 62        -1.5820245234e-01
 63         0.0000000000e+00
 64         1.4797828930e+00
 65         6.0777943535e-01
 66         0.0000000000e+00
 67         3.9274802601e-01
 68         6.4924075475e-02
 69        -3.9928413352e-01
 70         0.0000000000e+00
 71        -2.8602365313e-02
 72        -3.9987044219e-01
 73         0.0000000000e+00
 74        -7.2794379118e-01
 75         0.0000000000e+00
 76         3.2338107073e-02
 77        -5.5805697162e-01
 78         0.0000000000e+00
 79         2.8451880401e-01
 80         0.0000000000e+00
 81        -4.7207672357e-01
 82         1.4464014402e-01
 83         0.0000000000e+00
 84         0.0000000000e+00
 85        -2.9997065057e-01
 86        -2.7685302083e-01
 87         9.2688866999e-01
 88         7.2701145098e-01
 89        -2.2454123154e-02
 90         0.0000000000e+00
 91         1.7734366508e-01
 92        -1.5820245234e-01
 93         0.0000000000e+00
 94        -1.4797828930e+00
 95         6.0777943535e-01
 96         0.0000000000e+00
 97        -3.9274802601e-01
 98         6.4924075475e-02
 99        -3.9928413352e-01
100         0.0000000000e+00
101         2.8602365313e-02
102        -3.9987044219e-01
103         0.0000000000e+00
104        -7.2794379118e-01
105         0.0000000000e+00
106        -3.2338107073e-02
107        -5.5805697162e-01
108         0.0000000000e+00
109         2.8451880401e-01
110         0.0000000000e+00
111         4.7207672357e-01
112         1.4464014402e-01
113         0.0000000000e+00
114         0.0000000000e+00
115         2.9997065057e-01
 Sym= B2
 Ene=         1.4872473137e+01
 Spin= Alpha
 Occup=         0.0000000000e+00
  1         0.0000000000e+00
  2         0.0000000000e+00
  3         0.0000000000e+00
  4         0.0000000000e+00
  5         0.0000000000e+00
  6         0.0000000000e+00
  7         8.5226571664e-01
  8         0.0000000000e+00
  9         0.0000000000e+00
 10        -2.5586428841e+00
 11         0.0000000000e+00
 12         0.0000000000e+00
 13         2.0044298611e+00
 14         0.0000000000e+00
 15         0.0000000000e+00
 16         4.0451793475e-01
 17         0.0000000000e+00
 18         0.0000000000e+00
 19         0.0000000000e+00
 20        -1.0924679052e+00
 21         0.0000000000e+00
 22         0.0000000000e+00
 23         0.0000000000e+00
 24         0.0000000000e+00
 25         4.9049705977e-01
 26         0.0000000000e+00
 27         0.0000000000e+00
 28         0.0000000000e+00
 29         0.0000000000e+00
 30         1.4803390505e+00
 31         0.0000000000e+00
 32         0.0000000000e+00
 33         0.0000000000e+00
 34         0.0000000000e+00
 35        -3.2771516525e-01
 36         0.0000000000e+00
 37         0.0000000000e+00
 38         0.0000000000e+00
 39         3.2936502335e-01
 40         0.0000000000e+00
 41         0.0000000000e+00
 42         9.5359738484e-01
 43         0.0000000000e+00
 44         0.0000000000e+00
 45         0.0000000000e+00
 46        -3.2267933873e-01
 47         0.0000000000e+00
 48         0.0000000000e+00
 49         1.9382418547e-01
 50         0.0000000000e+00
 51         0.0000000000e+00
 52         0.0000000000e+00
 53        -2.0622676088e-01
 54         0.0000000000e+00
 55         0.0000000000e+00
 56         3.6978950390e-01
 57         1.0456352381e+00
 58         4.0675611412e-03
 59         1.0450070124e-01
 60         0.0000000000e+00
 61         4.4050173413e-01
 62        -3.2411683422e-01
 63         0.0000000000e+00
 64        -2.3813685913e-01
 65         6.1011879284e-01
 66         0.0000000000e+00
 67        -1.0433721740e-01
 68         5.9257390176e-02
 69        -1.5495057828e-01
 70         0.0000000000e+00
 71         2.8347999845e-01
 72         3.5770026348e-02
 73         0.0000000000e+00
 74        -2.2262394079e-01
 75         0.0000000000e+00
 76         5.3369700153e-01
 77         3.2299207689e-01
 78         0.0000000000e+00
 79        -1.2122689173e-01
 80         0.0000000000e+00
 81        -3.5431546294e-01
 82        -3.6891019769e-01
 83         0.0000000000e+00
 84         0.0000000000e+00
 85         1.8602264319e-01
 86        -3.6978950390e-01
 87        -1.0456352381e+00
 88        -4.0675611412e-03
 89        -1.0450070124e-01
 90         0.0000000000e+00
 91         4.4050173413e-01
 92         3.2411683422e-01
 93         0.0000000000e+00
 94        -2.3813685913e-01
 95        -6.1011879284e-01
 96         0.0000000000e+00
 97        -1.0433721740e-01
 98        -5.9257390176e-02
 99         1.5495057828e-01
100         0.0000000000e+00
101         2.8347999845e-01
102        -3.5770026348e-02
103         0.0000000000e+00
104         2.2262394079e-01
105         0.0000000000e+00
106         5.3369700153e-01
107        -3.2299207689e-01
108         0.0000000000e+00
109         1.2122689173e-01
110         0.0000000000e+00
111        -3.5431546294e-01
112         3.6891019769e-01
113         0.0000000000e+00
114         0.0000000000e+00
115         1.8602264319e-01
 Sym= A1
 Ene=         1.6446702365e+01
 Spin= Alpha
 Occup=         0.0000000000e+00
  1         2.8293438423e-01
  2         4.0339393778e-01
  3         3.7423351385e+00
  4        -1.2916988424e+01
  5        -5.7557969944e+00
  6         0.0000000000e+00
  7         0.0000000000e+00
  8         7.3489476131e-01
  9         0.0000000000e+00
 10         0.0000000000e+00
 11        -1.1725267868e+00
 12         0.0000000000e+00
 13         0.0000000000e+00
 14        -6.2009429874e+00
 15         0.0000000000e+00
 16         0.0000000000e+00
 17        -1.1578318865e+00
 18        -1.6371158008e-02
 19         0.0000000000e+00
 20         0.0000000000e+00
 21        -1.0847161238e+00
 22         0.0000000000e+00
 23        -3.8255409078e-02
 24         0.0000000000e+00
 25         0.0000000000e+00
 26         2.8057656432e+00
 27         0.0000000000e+00
 28        -8.7466532641e-02
 29         0.0000000000e+00
 30         0.0000000000e+00
 31         1.7696416124e+00
 32         0.0000000000e+00
 33         3.3200714316e-01
 34         0.0000000000e+00
 35         0.0000000000e+00
 36         6.6498682432e-01
 37         0.0000000000e+00
 38         0.0000000000e+00
 39         0.0000000000e+00
 40         7.9653539651e-01
 41         0.0000000000e+00
 42         0.0000000000e+00
 43         1.5389353554e+00
 44         0.0000000000e+00
 45         0.0000000000e+00
 46         0.0000000000e+00
 47         3.7888052583e-01
 48         0.0000000000e+00
 49         0.0000000000e+00
 50         4.7909590366e-01
 51         0.0000000000e+00
 52         0.0000000000e+00
 53         0.0000000000e+00
 54        -3.0873437923e-01
 55         0.0000000000e+00
 56        -9.0299599145e-01
 57         5.5808165084e+00
 58         4.2761309722e+00
 59        -6.8804889927e-03
 60         0.0000000000e+00
 61         2.7516569978e-01
 62        -1.8252244533e-01
 63         0.0000000000e+00
 64         3.0358336465e+00
 65        -2.6660793779e+00
 66         0.0000000000e+00
 67         1.2782606293e+00
 68        -1.0395141282e+00
 69         1.4741584385e-01
 70         0.0000000000e+00
 71        -8.7669596442e-01
 72        -4.8609475581e-01
 73         0.0000000000e+00
 74         1.8581479569e-01
 75         0.0000000000e+00
 76        -9.2463238055e-01
 77        -5.1544359721e-01
 78         0.0000000000e+00
 79         7.6705003834e-02
 80         0.0000000000e+00
 81         2.5861852158e-01
 82         2.3933524002e-01
 83         0.0000000000e+00
 84         0.0000000000e+00
 85        -9.5624234106e-02
 86        -9.0299599145e-01
 87         5.5808165084e+00
 88         4.2761309722e+00
 89        -6.8804889927e-03
 90         0.0000000000e+00
 91        -2.7516569978e-01
 92        -1.8252244533e-01
 93         0.0000000000e+00
 94        -3.0358336465e+00
 95        -2.6660793779e+00
 96         0.0000000000e+00
 97        -1.2782606293e+00
 98        -1.0395141282e+00
 99         1.4741584385e-01
100         0.0000000000e+00
101         8.7669596442e-01
102        -4.8609475581e-01
103         0.0000000000e+00
104         1.8581479569e-01
105         0.0000000000e+00
106         9.2463238055e-01
107        -5.1544359721e-01
108         0.0000000000e+00
109         7.6705003834e-02
110         0.0000000000e+00
111        -2.5861852158e-01
112         2.3933524002e-01
113         0.0000000000e+00
114         0.0000000000e+00
115         9.5624234106e-02
 Sym= B2
 Ene=         1.6853320639e+01
 Spin= Alpha
 Occup=         0.0000000000e+00
  1         0.0000000000e+00
  2         0.0000000000e+00
  3         0.0000000000e+00
  4         0.0000000000e+00
  5         0.0000000000e+00
  6         0.0000000000e+00
  7         9.4614569220e-01
  8         0.0000000000e+00
  9         0.0000000000e+00
 10        -1.7369199745e+00
 11         0.0000000000e+00
 12         0.0000000000e+00
 13        -6.6326821987e+00
 14         0.0000000000e+00
 15         0.0000000000e+00
 16        -1.1913411843e+00
 17         0.0000000000e+00
 18         0.0000000000e+00
 19         0.0000000000e+00
 20         1.2266381243e+00
 21         0.0000000000e+00
 22         0.0000000000e+00
 23         0.0000000000e+00
 24         0.0000000000e+00
 25        -3.6537782465e+00
 26         0.0000000000e+00
 27         0.0000000000e+00
 28         0.0000000000e+00
 29         0.0000000000e+00
 30        -2.1371666454e+00
 31         0.0000000000e+00
 32         0.0000000000e+00
 33         0.0000000000e+00
 34         0.0000000000e+00
 35        -4.3540733720e-01
 36         0.0000000000e+00
 37         0.0000000000e+00
 38         0.0000000000e+00
 39         3.4108084852e-01
 40         0.0000000000e+00
 41         0.0000000000e+00
 42        -8.9158118773e-01
 43         0.0000000000e+00
 44         0.0000000000e+00
 45         0.0000000000e+00
 46         5.3501302962e-01
 47         0.0000000000e+00
 48         0.0000000000e+00
 49        -1.6761264581e-02
 50         0.0000000000e+00
 51         0.0000000000e+00
 52         0.0000000000e+00
 53         4.7641662571e-01
 54         0.0000000000e+00
 55         0.0000000000e+00
 56         8.9611452475e-01
 57        -4.8559300439e+00
 58        -3.5176790867e+00
 59        -2.7450403543e-02
 60         0.0000000000e+00
 61        -2.1233528836e-01
 62         1.6921060470e-01
 63         0.0000000000e+00
 64        -2.8764642626e+00
 65         2.0346795315e+00
 66         0.0000000000e+00
 67        -1.1445579537e+00
 68         8.9166262073e-01
 69         3.1697999573e-03
 70         0.0000000000e+00
 71         8.0727527977e-01
 72         5.8491380972e-01
 73         0.0000000000e+00
 74         1.4467291726e-02
 75         0.0000000000e+00
 76         8.2319186478e-01
 77         5.5172410130e-01
 78         0.0000000000e+00
 79        -1.8410819566e-01
 80         0.0000000000e+00
 81        -1.0963301042e-01
 82        -3.3661373578e-01
 83         0.0000000000e+00
 84         0.0000000000e+00
 85         1.8474806954e-01
 86        -8.9611452475e-01
 87         4.8559300439e+00
 88         3.5176790867e+00
 89         2.7450403543e-02
 90         0.0000000000e+00
 91        -2.1233528836e-01
 92        -1.6921060470e-01
 93         0.0000000000e+00
 94        -2.8764642626e+00
 95        -2.0346795315e+00
 96         0.0000000000e+00
 97        -1.1445579537e+00
 98        -8.9166262073e-01
 99        -3.1697999573e-03
100         0.0000000000e+00
101         8.0727527977e-01
102        -5.8491380972e-01
103         0.0000000000e+00
104        -1.4467291726e-02
105         0.0000000000e+00
106         8.2319186478e-01
107        -5.5172410130e-01
108         0.0000000000e+00
109         1.8410819566e-01
110         0.0000000000e+00
111        -1.0963301042e-01
112         3.3661373578e-01
113         0.0000000000e+00
114         0.0000000000e+00
115         1.8474806954e-01
 Sym= A1
 Ene=         4.4377551311e+01
 Spin= Alpha
 Occup=         0.0000000000e+00
  1         1.1834105790e+01
  2         1.2833408609e+01
  3         3.8855676811e+00
  4        -4.1393128966e+00
  5        -2.0910188361e+00
  6         0.0000000000e+00
  7         0.0000000000e+00
  8        -1.1582907350e-01
  9         0.0000000000e+00
 10         0.0000000000e+00
 11         7.1548053880e-01
 12         0.0000000000e+00
 13         0.0000000000e+00
 14        -2.3214056490e+00
 15         0.0000000000e+00
 16         0.0000000000e+00
 17        -5.1346184919e-01
 18         3.7772512562e-02
 19         0.0000000000e+00
 20         0.0000000000e+00
 21        -1.5221099498e-01
 22         0.0000000000e+00
 23        -9.1341857979e-02
 24         0.0000000000e+00
 25         0.0000000000e+00
 26         2.3381375488e-01
 27         0.0000000000e+00
 28        -1.5671531439e-01
 29         0.0000000000e+00
 30         0.0000000000e+00
 31         9.0642862405e-01
 32         0.0000000000e+00
 33        -5.4089879554e-02
 34         0.0000000000e+00
 35         0.0000000000e+00
 36        -1.2328889057e-01
 37         0.0000000000e+00
 38         0.0000000000e+00
 39         0.0000000000e+00
 40         2.6766796456e-01
 41         0.0000000000e+00
 42         0.0000000000e+00
 43         6.5342159555e-01
 44         0.0000000000e+00
 45         0.0000000000e+00
 46         0.0000000000e+00
 47         7.8029530204e-02
 48         0.0000000000e+00
 49         0.0000000000e+00
 50         1.1696928776e-01
 51         0.0000000000e+00
 52         0.0000000000e+00
 53         0.0000000000e+00
 54        -4.4992801073e-02
 55         0.0000000000e+00
 56        -3.8011471272e-02
 57         1.4982970393e+00
 58         1.3352260674e+00
 59        -7.8963172231e-03
 60         0.0000000000e+00
 61         1.2684062282e-01
 62        -1.2626851570e-01
 63         0.0000000000e+00
 64         5.4470040019e-01
 65        -3.6138990332e-01
 66         0.0000000000e+00
 67         3.3225517266e-01
 68        -2.6276859883e-01
 69        -1.3201593985e-02
 70         0.0000000000e+00
 71        -1.6207990198e-02
 72        -1.4286726748e-02
 73         0.0000000000e+00
 74        -2.2353829323e-02
 75         0.0000000000e+00
 76         8.2334810952e-02
 77         6.8183663515e-03
 78         0.0000000000e+00
 79        -6.0867013330e-02
 80         0.0000000000e+00
 81        -1.2462009697e-01
 82        -1.8373061605e-01
 83         0.0000000000e+00
 84         0.0000000000e+00
 85         8.4517779044e-02
 86        -3.8011471272e-02
 87         1.4982970393e+00
 88         1.3352260674e+00
 89        -7.8963172231e-03
 90         0.0000000000e+00
 91        -1.2684062282e-01
 92        -1.2626851570e-01
 93         0.0000000000e+00
 94        -5.4470040019e-01
 95        -3.6138990332e-01
 96         0.0000000000e+00
 97        -3.3225517266e-01
 98        -2.6276859883e-01
 99        -1.3201593985e-02
100         0.0000000000e+00
101         1.6207990198e-02
102        -1.4286726748e-02
103         0.0000000000e+00
104        -2.2353829323e-02
105         0.0000000000e+00
106        -8.2334810952e-02
107         6.8183663515e-03
108         0.0000000000e+00
109        -6.0867013330e-02
110         0.0000000000e+00
111         1.2462009697e-01
112        -1.8373061605e-01
113         0.0000000000e+00
114         0.0000000000e+00
115        -8.4517779044e-02
