[Molden Format]
[Atoms] (AU)
H    1    1           0.0000000000         0.0000000000         3.1077433794
C    2    6           0.0000000000         0.0000000000         1.0573905333
O    3    8           0.0000000000         0.0000000000        -0.9895608058
[GTO]
  1 0
 s    3  1.00
       33.8700000000         0.0060680000
        5.0950000000         0.0453080000
        1.1590000000         0.2028220000
 s    1  1.00
        0.3258000000         1.0000000000
 s    1  1.00
        0.1027000000         1.0000000000
 p    1  1.00
        1.4070000000         1.0000000000
 p    1  1.00
        0.3880000000         1.0000000000
 d    1  1.00
        1.0570000000         1.0000000000

  2 0
 s    8  1.00
     8236.0000000000         0.0005310000
     1235.0000000000         0.0041080000
      280.8000000000         0.0210870000
       79.2700000000         0.0818530000
       25.5900000000         0.2348170000
        8.9970000000         0.4344010000
        3.3190000000         0.3461290000
        0.3643000000        -0.0089830000
 s    8  1.00
     8236.0000000000        -0.0001130000
     1235.0000000000        -0.0008780000
      280.8000000000        -0.0045400000
       79.2700000000        -0.0181330000
       25.5900000000        -0.0557600000
        8.9970000000        -0.1268950000
        3.3190000000        -0.1703520000
        0.3643000000         0.5986840000
 s    1  1.00
        0.9059000000         1.0000000000
 s    1  1.00
        0.1285000000         1.0000000000
 p    3  1.00
       18.7100000000         0.0140310000
        4.1330000000         0.0868660000
        1.2000000000         0.2902160000
 p    1  1.00
        0.3827000000         1.0000000000
 p    1  1.00
        0.1209000000         1.0000000000
 d    1  1.00
        1.0970000000         1.0000000000
 d    1  1.00
        0.3180000000         1.0000000000
 f    1  1.00
        0.7610000000         1.0000000000

  3 0
 s    8  1.00
    15330.0000000000         0.0005080000
     2299.0000000000         0.0039290000
      522.4000000000         0.0202430000
      147.3000000000         0.0791810000
       47.5500000000         0.2306870000
       16.7600000000         0.4331180000
        6.2070000000         0.3502600000
        0.6882000000        -0.0081540000
 s    8  1.00
    15330.0000000000        -0.0001150000
     2299.0000000000        -0.0008950000
      522.4000000000        -0.0046360000
      147.3000000000        -0.0187240000
       47.5500000000        -0.0584630000
       16.7600000000        -0.1364630000
        6.2070000000        -0.1757400000
        0.6882000000         0.6034180000
 s    1  1.00
        1.7520000000         1.0000000000
 s    1  1.00
        0.2384000000         1.0000000000
 p    3  1.00
       34.4600000000         0.0159280000
        7.7490000000         0.0997400000
        2.2800000000         0.3104920000
 p    1  1.00
        0.7156000000         1.0000000000
 p    1  1.00
        0.2140000000         1.0000000000
 d    1  1.00
        2.3140000000         1.0000000000
 d    1  1.00
        0.6450000000         1.0000000000
 f    1  1.00
        1.4280000000         1.0000000000

[5D]
[9G]

[MO]
 Sym= A1
 Ene=        -2.1032438599e+01
 Spin= Alpha
 Occup=         2.0000000000e+00
  1         2.7698617848e-04
  2         1.7082522289e-03
  3         7.1771881350e-04
  4         0.0000000000e+00
  5         0.0000000000e+00
  6        -2.9546824693e-04
  7         0.0000000000e+00
  8         0.0000000000e+00
  9        -4.6771933854e-04
 10         1.0499837637e-04
 11         0.0000000000e+00
 12         0.0000000000e+00
 13        -6.3143917870e-17
 14         0.0000000000e+00
 15        -6.9578770206e-04
 16        -1.4557490074e-03
 17        -2.9717919027e-04
 18        -3.6956978065e-04
 19         0.0000000000e+00
 20         0.0000000000e+00
 21         6.3978324960e-04
 22         0.0000000000e+00
 23         0.0000000000e+00
 24        -2.2099733204e-04
 25         0.0000000000e+00
 26         0.0000000000e+00
 27        -1.4416826880e-03
 28        -1.7401351271e-04
 29         0.0000000000e+00
 30         0.0000000000e+00
 31        -1.9387512782e-16
 32         0.0000000000e+00
 33        -9.2913552652e-04
 34         0.0000000000e+00
 35         0.0000000000e+00
 36         1.2881392717e-16
 37         0.0000000000e+00
 38        -5.9571511717e-04
 39         0.0000000000e+00
 40         0.0000000000e+00
 41        -1.5608274759e-16
 42         0.0000000000e+00
 43         0.0000000000e+00
 44         0.0000000000e+00
 45        -9.7567948750e-01
 46         1.0887957998e-03
 47        -4.3511872174e-02
 48        -3.2533538563e-03
 49         0.0000000000e+00
 50         0.0000000000e+00
 51        -2.2753483666e-03
 52         0.0000000000e+00
 53         0.0000000000e+00
 54         1.3456897187e-03
 55         0.0000000000e+00
 56         0.0000000000e+00
 57        -3.3585409067e-04
 58        -4.1341794275e-04
 59         0.0000000000e+00
 60         0.0000000000e+00
 61         2.8136602135e-17
 62         0.0000000000e+00
 63         3.8453248021e-04
 64         0.0000000000e+00
 65         0.0000000000e+00
 66        -4.1408775837e-17
 67         0.0000000000e+00
 68         4.8630215745e-05
 69         0.0000000000e+00
 70         0.0000000000e+00
 71         2.1478062301e-17
 72         0.0000000000e+00
 73         0.0000000000e+00
 74         0.0000000000e+00
 Sym= A1
 Ene=        -1.1754223577e+01
 Spin= Alpha
 Occup=         2.0000000000e+00
  1         5.0446345285e-04
  2         3.4246176765e-03
  3        -5.5546680499e-04
  4         0.0000000000e+00
  5         0.0000000000e+00
  6         5.3410337083e-05
  7         0.0000000000e+00
  8         0.0000000000e+00
  9        -1.2039665875e-03
 10        -2.6919230901e-04
 11         0.0000000000e+00
 12         0.0000000000e+00
 13        -1.3874079568e-17
 14         0.0000000000e+00
 15         9.7728399684e-01
 16        -7.3785013138e-04
 17         4.1794477104e-02
 18         7.5057407880e-04
 19         0.0000000000e+00
 20         0.0000000000e+00
 21        -3.9552967532e-04
 22         0.0000000000e+00
 23         0.0000000000e+00
 24        -2.8781490925e-03
 25         0.0000000000e+00
 26         0.0000000000e+00
 27         2.7477118840e-04
 28         1.7023516780e-03
 29         0.0000000000e+00
 30         0.0000000000e+00
 31        -5.5934903081e-16
 32         0.0000000000e+00
 33        -1.5452507774e-03
 34         0.0000000000e+00
 35         0.0000000000e+00
 36         6.3519139485e-16
 37         0.0000000000e+00
 38        -5.3799050160e-04
 39         0.0000000000e+00
 40         0.0000000000e+00
 41        -5.8418038888e-16
 42         0.0000000000e+00
 43         0.0000000000e+00
 44         0.0000000000e+00
 45        -7.0024011274e-04
 46         4.0234728665e-04
 47         1.7630596390e-04
 48         5.0321039554e-04
 49         0.0000000000e+00
 50         0.0000000000e+00
 51         5.7888842301e-04
 52         0.0000000000e+00
 53         0.0000000000e+00
 54        -2.5280214696e-04
 55         0.0000000000e+00
 56         0.0000000000e+00
 57         6.2070071181e-05
 58         1.8998211742e-04
 59         0.0000000000e+00
 60         0.0000000000e+00
 61         3.4596296892e-16
 62         0.0000000000e+00
 63        -4.5871569024e-04
 64         0.0000000000e+00
 65         0.0000000000e+00
 66        -8.8269524749e-16
 67         0.0000000000e+00
 68         2.4561657529e-04
 69         0.0000000000e+00
 70         0.0000000000e+00
 71        -7.8816307902e-17
 72         0.0000000000e+00
 73         0.0000000000e+00
 74         0.0000000000e+00
 Sym= A1
 Ene=        -1.8965131848e+00
 Spin= Alpha
 Occup=         2.0000000000e+00
  1         7.4528061865e-03
  2        -5.7243919378e-02
  3        -1.1345822487e-02
  4         0.0000000000e+00
  5         0.0000000000e+00
  6         1.4481004714e-03
  7         0.0000000000e+00
  8         0.0000000000e+00
  9         3.0044798887e-02
 10        -5.4014227137e-03
 11         0.0000000000e+00
 12         0.0000000000e+00
 13        -2.2540364136e-18
 14         0.0000000000e+00
 15        -2.4674332748e-02
 16         2.6148678619e-01
 17         5.8665069122e-02
 18         5.2710236333e-02
 19         0.0000000000e+00
 20         0.0000000000e+00
 21        -1.3403297737e-01
 22         0.0000000000e+00
 23         0.0000000000e+00
 24        -7.4057093761e-02
 25         0.0000000000e+00
 26         0.0000000000e+00
 27         7.8000767804e-03
 28         2.8522454534e-02
 29         0.0000000000e+00
 30         0.0000000000e+00
 31        -1.4223314804e-15
 32         0.0000000000e+00
 33         3.7686738962e-02
 34         0.0000000000e+00
 35         0.0000000000e+00
 36        -4.4693807353e-16
 37         0.0000000000e+00
 38        -4.9525181920e-03
 39         0.0000000000e+00
 40         0.0000000000e+00
 41        -1.1629714417e-17
 42         0.0000000000e+00
 43         0.0000000000e+00
 44         0.0000000000e+00
 45        -1.3175229591e-02
 46         4.6534426381e-01
 47         1.2409171697e-01
 48         1.6544165670e-01
 49         0.0000000000e+00
 50         0.0000000000e+00
 51         1.0462585591e-01
 52         0.0000000000e+00
 53         0.0000000000e+00
 54         1.2152971683e-01
 55         0.0000000000e+00
 56         0.0000000000e+00
 57         1.2467835838e-02
 58         1.1116420606e-02
 59         0.0000000000e+00
 60         0.0000000000e+00
 61         4.2235199560e-16
 62         0.0000000000e+00
 63         2.1712448704e-02
 64         0.0000000000e+00
 65         0.0000000000e+00
 66         7.2430718577e-16
 67         0.0000000000e+00
 68         5.1729790705e-03
 69         0.0000000000e+00
 70         0.0000000000e+00
 71        -7.1461765024e-17
 72         0.0000000000e+00
 73         0.0000000000e+00
 74         0.0000000000e+00
 Sym= A1
 Ene=        -1.1995944080e+00
 Spin= Alpha
 Occup=         2.0000000000e+00
  1         1.5023254754e-01
  2         2.1041612556e-01
  3         9.0302435642e-03
  4         0.0000000000e+00
  5         0.0000000000e+00
  6        -1.8011332584e-02
  7         0.0000000000e+00
  8         0.0000000000e+00
  9        -2.9374832076e-02
 10         4.8029604413e-03
 11         0.0000000000e+00
 12         0.0000000000e+00
 13         9.3057548647e-17
 14         0.0000000000e+00
 15        -1.3051273492e-03
 16         4.2209349482e-01
 17         1.0216376234e-01
 18         1.3869739838e-01
 19         0.0000000000e+00
 20         0.0000000000e+00
 21         1.2783344348e-01
 22         0.0000000000e+00
 23         0.0000000000e+00
 24         1.4538621926e-01
 25         0.0000000000e+00
 26         0.0000000000e+00
 27         3.3793122796e-02
 28         1.7041676039e-02
 29         0.0000000000e+00
 30         0.0000000000e+00
 31        -3.7646454178e-16
 32         0.0000000000e+00
 33         1.0215567428e-02
 34         0.0000000000e+00
 35         0.0000000000e+00
 36        -1.9015468436e-15
 37         0.0000000000e+00
 38         1.4466248507e-03
 39         0.0000000000e+00
 40         0.0000000000e+00
 41         9.2682719698e-16
 42         0.0000000000e+00
 43         0.0000000000e+00
 44         0.0000000000e+00
 45        -5.5484097731e-03
 46        -2.0581378853e-01
 47        -5.7940360085e-02
 48        -1.7636490964e-01
 49         0.0000000000e+00
 50         0.0000000000e+00
 51         1.0902027891e-01
 52         0.0000000000e+00
 53         0.0000000000e+00
 54         1.2710504315e-01
 55         0.0000000000e+00
 56         0.0000000000e+00
 57         5.0337571364e-02
 58         3.2994878842e-03
 59         0.0000000000e+00
 60         0.0000000000e+00
 61        -2.6942440748e-16
 62         0.0000000000e+00
 63         3.1534909122e-03
 64         0.0000000000e+00
 65         0.0000000000e+00
 66        -2.6859327984e-16
 67         0.0000000000e+00
 68        -1.0330897041e-04
 69         0.0000000000e+00
 70         0.0000000000e+00
 71        -6.0129424344e-17
 72         0.0000000000e+00
 73         0.0000000000e+00
 74         0.0000000000e+00
 Sym= A1
 Ene=        -1.0956912956e+00
 Spin= Alpha
 Occup=         2.0000000000e+00
  1         8.8170107430e-02
  2         1.3419169704e-01
  3         1.0981687049e-02
  4         0.0000000000e+00
  5         0.0000000000e+00
  6        -1.0537127890e-02
  7         0.0000000000e+00
  8         0.0000000000e+00
  9        -2.3431539282e-02
 10         6.0825409064e-03
 11         0.0000000000e+00
 12         0.0000000000e+00
 13         1.3963553462e-16
 14         0.0000000000e+00
 15         4.4236455591e-03
 16        -4.0445440860e-02
 17        -1.5953316147e-02
 18         6.4716720711e-02
 19         0.0000000000e+00
 20         0.0000000000e+00
 21         2.1655579563e-01
 22         0.0000000000e+00
 23         0.0000000000e+00
 24         2.1521512188e-01
 25         0.0000000000e+00
 26         0.0000000000e+00
 27         2.7341537479e-02
 28        -1.1377429145e-02
 29         0.0000000000e+00
 30         0.0000000000e+00
 31         4.4979544016e-16
 32         0.0000000000e+00
 33         6.6227758057e-03
 34         0.0000000000e+00
 35         0.0000000000e+00
 36        -5.1712758642e-17
 37         0.0000000000e+00
 38         7.9686386709e-03
 39         0.0000000000e+00
 40         0.0000000000e+00
 41        -8.7165762523e-17
 42         0.0000000000e+00
 43         0.0000000000e+00
 44         0.0000000000e+00
 45         1.0250145858e-02
 46         2.3451822659e-01
 47         6.7655188345e-02
 48         2.7569302072e-01
 49         0.0000000000e+00
 50         0.0000000000e+00
 51        -3.0016801343e-01
 52         0.0000000000e+00
 53         0.0000000000e+00
 54        -3.5472051327e-01
 55         0.0000000000e+00
 56         0.0000000000e+00
 57        -1.3746081184e-01
 58        -1.3660971921e-02
 59         0.0000000000e+00
 60         0.0000000000e+00
 61         2.1581105697e-16
 62         0.0000000000e+00
 63        -2.4367167028e-02
 64         0.0000000000e+00
 65         0.0000000000e+00
 66         3.8481755840e-16
 67         0.0000000000e+00
 68        -5.0507139889e-03
 69         0.0000000000e+00
 70         0.0000000000e+00
 71         2.5848821908e-17
 72         0.0000000000e+00
 73         0.0000000000e+00
 74         0.0000000000e+00
 Sym= B1
 Ene=        -9.9346897461e-01
 Spin= Alpha
 Occup=         2.0000000000e+00
  1         0.0000000000e+00
  2         0.0000000000e+00
  3         0.0000000000e+00
  4         7.1788935356e-04
  5         0.0000000000e+00
  6         0.0000000000e+00
  7         1.1572573311e-02
  8         0.0000000000e+00
  9         0.0000000000e+00
 10         0.0000000000e+00
 11         5.2159093261e-04
 12         0.0000000000e+00
 13         0.0000000000e+00
 14         0.0000000000e+00
 15         0.0000000000e+00
 16         0.0000000000e+00
 17         0.0000000000e+00
 18         0.0000000000e+00
 19         1.9056540994e-01
 20         0.0000000000e+00
 21         0.0000000000e+00
 22         2.5349090113e-01
 23         0.0000000000e+00
 24         0.0000000000e+00
 25         6.3597447551e-02
 26         0.0000000000e+00
 27         0.0000000000e+00
 28         0.0000000000e+00
 29        -2.9202787061e-02
 30         0.0000000000e+00
 31         0.0000000000e+00
 32         0.0000000000e+00
 33         0.0000000000e+00
 34        -4.5698274521e-02
 35         0.0000000000e+00
 36         0.0000000000e+00
 37         0.0000000000e+00
 38         0.0000000000e+00
 39         1.4384040738e-02
 40         0.0000000000e+00
 41         0.0000000000e+00
 42         0.0000000000e+00
 43         2.7975844726e-16
 44         0.0000000000e+00
 45         0.0000000000e+00
 46         0.0000000000e+00
 47         0.0000000000e+00
 48         0.0000000000e+00
 49         3.0295099066e-01
 50         0.0000000000e+00
 51         0.0000000000e+00
 52         3.8694902846e-01
 53         0.0000000000e+00
 54         0.0000000000e+00
 55         1.9498960822e-01
 56         0.0000000000e+00
 57         0.0000000000e+00
 58         0.0000000000e+00
 59         1.4725458691e-02
 60         0.0000000000e+00
 61         0.0000000000e+00
 62         0.0000000000e+00
 63         0.0000000000e+00
 64         3.2676503094e-02
 65         0.0000000000e+00
 66         0.0000000000e+00
 67         0.0000000000e+00
 68         0.0000000000e+00
 69         6.5603953847e-03
 70         0.0000000000e+00
 71         0.0000000000e+00
 72         0.0000000000e+00
 73        -8.4078301451e-16
 74         0.0000000000e+00
 Sym= B2
 Ene=        -9.9346897461e-01
 Spin= Alpha
 Occup=         2.0000000000e+00
  1         0.0000000000e+00
  2         0.0000000000e+00
  3         0.0000000000e+00
  4         0.0000000000e+00
  5         7.1788935355e-04
  6         0.0000000000e+00
  7         0.0000000000e+00
  8         1.1572573311e-02
  9         0.0000000000e+00
 10         0.0000000000e+00
 11         0.0000000000e+00
 12         5.2159093263e-04
 13         0.0000000000e+00
 14         0.0000000000e+00
 15         0.0000000000e+00
 16         0.0000000000e+00
 17         0.0000000000e+00
 18         0.0000000000e+00
 19         0.0000000000e+00
 20         1.9056540994e-01
 21         0.0000000000e+00
 22         0.0000000000e+00
 23         2.5349090113e-01
 24         0.0000000000e+00
 25         0.0000000000e+00
 26         6.3597447551e-02
 27         0.0000000000e+00
 28         0.0000000000e+00
 29         0.0000000000e+00
 30        -2.9202787061e-02
 31         0.0000000000e+00
 32         0.0000000000e+00
 33         0.0000000000e+00
 34         0.0000000000e+00
 35        -4.5698274521e-02
 36         0.0000000000e+00
 37         0.0000000000e+00
 38         0.0000000000e+00
 39         0.0000000000e+00
 40         1.4384040738e-02
 41         0.0000000000e+00
 42         0.0000000000e+00
 43         0.0000000000e+00
 44         7.6419757567e-16
 45         0.0000000000e+00
 46         0.0000000000e+00
 47         0.0000000000e+00
 48         0.0000000000e+00
 49         0.0000000000e+00
 50         3.0295099066e-01
 51         0.0000000000e+00
 52         0.0000000000e+00
 53         3.8694902846e-01
 54         0.0000000000e+00
 55         0.0000000000e+00
 56         1.9498960822e-01
 57         0.0000000000e+00
 58         0.0000000000e+00
 59         0.0000000000e+00
 60         1.4725458691e-02
 61         0.0000000000e+00
 62         0.0000000000e+00
 63         0.0000000000e+00
 64         0.0000000000e+00
 65         3.2676503094e-02
 66         0.0000000000e+00
 67         0.0000000000e+00
 68         0.0000000000e+00
 69         0.0000000000e+00
 70         6.5603953847e-03
 71         0.0000000000e+00
 72         0.0000000000e+00
 73         0.0000000000e+00
 74        -4.3073205648e-16
 Sym= B2
 Ene=        -1.8847943227e-01
 Spin= Alpha
 Occup=         0.0000000000e+00
  1         0.0000000000e+00
  2         0.0000000000e+00
  3         0.0000000000e+00
  4         0.0000000000e+00
  5         7.7943390656e-03
  6         0.0000000000e+00
  7         0.0000000000e+00
  8         7.0392709327e-02
  9         0.0000000000e+00
 10         0.0000000000e+00
 11         0.0000000000e+00
 12        -6.5481650887e-03
 13         0.0000000000e+00
 14         0.0000000000e+00
 15         0.0000000000e+00
 16         0.0000000000e+00
 17         0.0000000000e+00
 18         0.0000000000e+00
 19         0.0000000000e+00
 20         2.4562706977e-01
 21         0.0000000000e+00
 22         0.0000000000e+00
 23         3.7676608546e-01
 24         0.0000000000e+00
 25         0.0000000000e+00
 26         6.1446684902e-01
 27         0.0000000000e+00
 28         0.0000000000e+00
 29         0.0000000000e+00
 30         2.3431453528e-02
 31         0.0000000000e+00
 32         0.0000000000e+00
 33         0.0000000000e+00
 34         0.0000000000e+00
 35         3.6195545991e-02
 36         0.0000000000e+00
 37         0.0000000000e+00
 38         0.0000000000e+00
 39         0.0000000000e+00
 40        -3.7902763181e-03
 41         0.0000000000e+00
 42         0.0000000000e+00
 43         0.0000000000e+00
 44         9.8419942510e-16
 45         0.0000000000e+00
 46         0.0000000000e+00
 47         0.0000000000e+00
 48         0.0000000000e+00
 49         0.0000000000e+00
 50        -2.1594922755e-01
 51         0.0000000000e+00
 52         0.0000000000e+00
 53        -2.6092022710e-01
 54         0.0000000000e+00
 55         0.0000000000e+00
 56        -4.5495484279e-01
 57         0.0000000000e+00
 58         0.0000000000e+00
 59         0.0000000000e+00
 60         6.8508999887e-03
 61         0.0000000000e+00
 62         0.0000000000e+00
 63         0.0000000000e+00
 64         0.0000000000e+00
 65         2.8310023582e-03
 66         0.0000000000e+00
 67         0.0000000000e+00
 68         0.0000000000e+00
 69         0.0000000000e+00
 70         1.3072794179e-03
 71         0.0000000000e+00
 72         0.0000000000e+00
 73         0.0000000000e+00
 74         2.7505203249e-16
 Sym= B1
 Ene=        -1.8847943227e-01
 Spin= Alpha
 Occup=         0.0000000000e+00
  1         0.0000000000e+00
  2         0.0000000000e+00
  3         0.0000000000e+00
  4         7.7943390656e-03
  5         0.0000000000e+00
  6         0.0000000000e+00
  7         7.0392709327e-02
  8         0.0000000000e+00
  9         0.0000000000e+00
 10         0.0000000000e+00
 11        -6.5481650887e-03
 12         0.0000000000e+00
 13         0.0000000000e+00
 14         0.0000000000e+00
 15         0.0000000000e+00
 16         0.0000000000e+00
 17         0.0000000000e+00
 18         0.0000000000e+00
 19         2.4562706977e-01
 20         0.0000000000e+00
 21         0.0000000000e+00
 22         3.7676608546e-01
 23         0.0000000000e+00
 24         0.0000000000e+00
 25         6.1446684902e-01
 26         0.0000000000e+00
 27         0.0000000000e+00
 28         0.0000000000e+00
 29         2.3431453528e-02
 30         0.0000000000e+00
 31         0.0000000000e+00
 32         0.0000000000e+00
 33         0.0000000000e+00
 34         3.6195545991e-02
 35         0.0000000000e+00
 36         0.0000000000e+00
 37         0.0000000000e+00
 38         0.0000000000e+00
 39        -3.7902763183e-03
 40         0.0000000000e+00
 41         0.0000000000e+00
 42         0.0000000000e+00
 43         6.3616891355e-16
 44         0.0000000000e+00
 45         0.0000000000e+00
 46         0.0000000000e+00
 47         0.0000000000e+00
 48         0.0000000000e+00
 49        -2.1594922755e-01
 50         0.0000000000e+00
 51         0.0000000000e+00
 52        -2.6092022710e-01
 53         0.0000000000e+00
 54         0.0000000000e+00
 55        -4.5495484279e-01
 56         0.0000000000e+00
 57         0.0000000000e+00
 58         0.0000000000e+00
 59         6.8508999887e-03
 60         0.0000000000e+00
 61         0.0000000000e+00
 62         0.0000000000e+00
 63         0.0000000000e+00
 64         2.8310023584e-03
 65         0.0000000000e+00
 66         0.0000000000e+00
 67         0.0000000000e+00
 68         0.0000000000e+00
 69         1.3072794180e-03
 70         0.0000000000e+00
 71         0.0000000000e+00
 72         0.0000000000e+00
 73         5.7124452861e-16
 74         0.0000000000e+00
 Sym= A1
 Ene=        -1.0622820531e-01
 Spin= Alpha
 Occup=         0.0000000000e+00
  1         9.7428951494e-02
  2         4.3325448677e-01
  3         1.9190460513e+00
  4         0.0000000000e+00
  5         0.0000000000e+00
  6         2.0322898024e-02
  7         0.0000000000e+00
  8         0.0000000000e+00
  9        -8.6959568791e-02
 10         3.0387815519e-04
 11         0.0000000000e+00
 12         0.0000000000e+00
 13         3.7414654504e-17
 14         0.0000000000e+00
 15        -2.3066614442e-02
 16        -2.6667048218e-01
 17        -5.3610576759e-02
 18        -2.1416460593e+00
 19         0.0000000000e+00
 20         0.0000000000e+00
 21        -1.1034709070e-01
 22         0.0000000000e+00
 23         0.0000000000e+00
 24        -1.3881403443e-01
 25         0.0000000000e+00
 26         0.0000000000e+00
 27        -3.5874948276e-01
 28         3.2863262699e-02
 29         0.0000000000e+00
 30         0.0000000000e+00
 31        -3.1816667138e-17
 32         0.0000000000e+00
 33        -1.0100902236e-01
 34         0.0000000000e+00
 35         0.0000000000e+00
 36         2.2139983981e-15
 37         0.0000000000e+00
 38        -1.6621810316e-03
 39         0.0000000000e+00
 40         0.0000000000e+00
 41        -5.3541474766e-16
 42         0.0000000000e+00
 43         0.0000000000e+00
 44         0.0000000000e+00
 45         8.7481951416e-03
 46         1.0711815545e-01
 47         3.2948094138e-02
 48         4.9282137664e-01
 49         0.0000000000e+00
 50         0.0000000000e+00
 51         6.7763208470e-02
 52         0.0000000000e+00
 53         0.0000000000e+00
 54         1.0274419220e-01
 55         0.0000000000e+00
 56         0.0000000000e+00
 57         2.2908456525e-01
 58         1.6986389076e-03
 59         0.0000000000e+00
 60         0.0000000000e+00
 61        -3.9652622818e-17
 62         0.0000000000e+00
 63         9.6569333783e-03
 64         0.0000000000e+00
 65         0.0000000000e+00
 66         6.2129253331e-16
 67         0.0000000000e+00
 68         9.2300435257e-04
 69         0.0000000000e+00
 70         0.0000000000e+00
 71         4.1608738346e-17
 72         0.0000000000e+00
 73         0.0000000000e+00
 74         0.0000000000e+00
 Sym= A1
 Ene=        -3.0410083454e-02
 Spin= Alpha
 Occup=         0.0000000000e+00
  1         8.1933538357e-02
  2         7.9529617196e-01
  3        -1.3774431119e+00
  4         0.0000000000e+00
  5         0.0000000000e+00
  6        -1.5932038993e-02
  7         0.0000000000e+00
  8         0.0000000000e+00
  9        -4.0208476746e-02
 10        -6.1056158738e-03
 11         0.0000000000e+00
 12         0.0000000000e+00
 13         2.4335420358e-16
 14         0.0000000000e+00
 15        -3.5813661097e-02
 16        -1.8279261552e-02
 17         4.7083084559e-02
 18        -1.5274550899e+00
 19         0.0000000000e+00
 20         0.0000000000e+00
 21         3.0304341472e-02
 22         0.0000000000e+00
 23         0.0000000000e+00
 24         2.8802552105e-01
 25         0.0000000000e+00
 26         0.0000000000e+00
 27         1.3374051763e+00
 28         3.8751324539e-02
 29         0.0000000000e+00
 30         0.0000000000e+00
 31         5.4024847555e-16
 32         0.0000000000e+00
 33        -3.2880230246e-01
 34         0.0000000000e+00
 35         0.0000000000e+00
 36         1.8579510426e-15
 37         0.0000000000e+00
 38         1.4237850996e-02
 39         0.0000000000e+00
 40         0.0000000000e+00
 41         2.6691949425e-18
 42         0.0000000000e+00
 43         0.0000000000e+00
 44         0.0000000000e+00
 45        -3.9460188794e-03
 46         1.4209900302e-01
 47         5.3454812037e-02
 48         2.0117498428e+00
 49         0.0000000000e+00
 50         0.0000000000e+00
 51         1.9442673532e-02
 52         0.0000000000e+00
 53         0.0000000000e+00
 54         1.6704557730e-01
 55         0.0000000000e+00
 56         0.0000000000e+00
 57         4.2816535883e-01
 58         4.4903649481e-03
 59         0.0000000000e+00
 60         0.0000000000e+00
 61        -1.8848085477e-17
 62         0.0000000000e+00
 63         3.7642401284e-02
 64         0.0000000000e+00
 65         0.0000000000e+00
 66         1.0158674033e-15
 67         0.0000000000e+00
 68         2.0991565634e-03
 69         0.0000000000e+00
 70         0.0000000000e+00
 71         6.9750417614e-17
 72         0.0000000000e+00
 73         0.0000000000e+00
 74         0.0000000000e+00
 Sym= B1
 Ene=         1.4836352372e-01
 Spin= Alpha
 Occup=         0.0000000000e+00
  1         0.0000000000e+00
  2         0.0000000000e+00
  3         0.0000000000e+00
  4         9.6866414827e-03
  5         0.0000000000e+00
  6         0.0000000000e+00
  7        -6.0075324926e-02
  8         0.0000000000e+00
  9         0.0000000000e+00
 10         0.0000000000e+00
 11        -5.6623870605e-03
 12         0.0000000000e+00
 13         0.0000000000e+00
 14         0.0000000000e+00
 15         0.0000000000e+00
 16         0.0000000000e+00
 17         0.0000000000e+00
 18         0.0000000000e+00
 19        -2.4520265669e-01
 20         0.0000000000e+00
 21         0.0000000000e+00
 22        -8.3870695195e-01
 23         0.0000000000e+00
 24         0.0000000000e+00
 25         1.2317967321e+00
 26         0.0000000000e+00
 27         0.0000000000e+00
 28         0.0000000000e+00
 29         1.0479216614e-02
 30         0.0000000000e+00
 31         0.0000000000e+00
 32         0.0000000000e+00
 33         0.0000000000e+00
 34         2.2560511424e-02
 35         0.0000000000e+00
 36         0.0000000000e+00
 37         0.0000000000e+00
 38         0.0000000000e+00
 39        -1.3446672355e-02
 40         0.0000000000e+00
 41         0.0000000000e+00
 42         0.0000000000e+00
 43        -5.0409016600e-16
 44         0.0000000000e+00
 45         0.0000000000e+00
 46         0.0000000000e+00
 47         0.0000000000e+00
 48         0.0000000000e+00
 49         1.4583733262e-02
 50         0.0000000000e+00
 51         0.0000000000e+00
 52         4.5754910382e-02
 53         0.0000000000e+00
 54         0.0000000000e+00
 55         2.4229445696e-04
 56         0.0000000000e+00
 57         0.0000000000e+00
 58         0.0000000000e+00
 59        -1.2060124402e-02
 60         0.0000000000e+00
 61         0.0000000000e+00
 62         0.0000000000e+00
 63         0.0000000000e+00
 64        -1.0543659764e-02
 65         0.0000000000e+00
 66         0.0000000000e+00
 67         0.0000000000e+00
 68         0.0000000000e+00
 69         2.2269744686e-03
 70         0.0000000000e+00
 71         0.0000000000e+00
 72         0.0000000000e+00
 73        -2.2959712732e-16
 74         0.0000000000e+00
 Sym= B2
 Ene=         1.4836352372e-01
 Spin= Alpha
 Occup=         0.0000000000e+00
  1         0.0000000000e+00
  2         0.0000000000e+00
  3         0.0000000000e+00
  4         0.0000000000e+00
  5         9.6866414827e-03
  6         0.0000000000e+00
  7         0.0000000000e+00
  8        -6.0075324926e-02
  9         0.0000000000e+00
 10         0.0000000000e+00
 11         0.0000000000e+00
 12        -5.6623870605e-03
 13         0.0000000000e+00
 14         0.0000000000e+00
 15         0.0000000000e+00
 16         0.0000000000e+00
 17         0.0000000000e+00
 18         0.0000000000e+00
 19         0.0000000000e+00
 20        -2.4520265669e-01
 21         0.0000000000e+00
 22         0.0000000000e+00
 23        -8.3870695195e-01
 24         0.0000000000e+00
 25         0.0000000000e+00
 26         1.2317967321e+00
 27         0.0000000000e+00
 28         0.0000000000e+00
 29         0.0000000000e+00
 30         1.0479216614e-02
 31         0.0000000000e+00
 32         0.0000000000e+00
 33         0.0000000000e+00
 34         0.0000000000e+00
 35         2.2560511424e-02
 36         0.0000000000e+00
 37         0.0000000000e+00
 38         0.0000000000e+00
 39         0.0000000000e+00
 40        -1.3446672355e-02
 41         0.0000000000e+00
 42         0.0000000000e+00
 43         0.0000000000e+00
 44        -1.1654004140e-15
 45         0.0000000000e+00
 46         0.0000000000e+00
 47         0.0000000000e+00
 48         0.0000000000e+00
 49         0.0000000000e+00
 50         1.4583733262e-02
 51         0.0000000000e+00
 52         0.0000000000e+00
 53         4.5754910382e-02
 54         0.0000000000e+00
 55         0.0000000000e+00
 56         2.4229445757e-04
 57         0.0000000000e+00
 58         0.0000000000e+00
 59         0.0000000000e+00
 60        -1.2060124402e-02
 61         0.0000000000e+00
 62         0.0000000000e+00
 63         0.0000000000e+00
 64         0.0000000000e+00
 65        -1.0543659764e-02
 66         0.0000000000e+00
 67         0.0000000000e+00
 68         0.0000000000e+00
 69         0.0000000000e+00
 70         2.2269744686e-03
 71         0.0000000000e+00
 72         0.0000000000e+00
 73         0.0000000000e+00
 74        -6.4059188931e-18
 Sym= A1
 Ene=         2.0993168194e-01
 Spin= Alpha
 Occup=         0.0000000000e+00
  1         9.2545632947e-02
  2         2.4585258362e+00
  3         9.6031501030e-01
  4         0.0000000000e+00
  5         0.0000000000e+00
  6        -6.5856253995e-02
  7         0.0000000000e+00
  8         0.0000000000e+00
  9        -5.6408385287e-01
 10         6.7591745370e-02
 11         0.0000000000e+00
 12         0.0000000000e+00
 13         6.3035111059e-17
 14         0.0000000000e+00
 15         9.1281941411e-02
 16         1.2148852533e-01
 17         9.7280543157e-02
 18        -4.2328528450e-01
 19         0.0000000000e+00
 20         0.0000000000e+00
 21         1.7458771803e-02
 22         0.0000000000e+00
 23         0.0000000000e+00
 24        -1.3833208943e+00
 25         0.0000000000e+00
 26         0.0000000000e+00
 27        -2.8599057973e+00
 28         5.9310546777e-02
 29         0.0000000000e+00
 30         0.0000000000e+00
 31         1.1165103273e-16
 32         0.0000000000e+00
 33        -1.1520534091e-01
 34         0.0000000000e+00
 35         0.0000000000e+00
 36         5.3121052335e-16
 37         0.0000000000e+00
 38        -1.3733756682e-01
 39         0.0000000000e+00
 40         0.0000000000e+00
 41        -2.9811466044e-16
 42         0.0000000000e+00
 43         0.0000000000e+00
 44         0.0000000000e+00
 45         2.5649940903e-03
 46        -8.1663909310e-02
 47        -2.0746648507e-02
 48        -2.6419100996e+00
 49         0.0000000000e+00
 50         0.0000000000e+00
 51         1.3783266109e-01
 52         0.0000000000e+00
 53         0.0000000000e+00
 54        -8.6518854287e-02
 55         0.0000000000e+00
 56         0.0000000000e+00
 57        -8.4841669436e-01
 58         3.6886797375e-04
 59         0.0000000000e+00
 60         0.0000000000e+00
 61         1.2100372078e-16
 62         0.0000000000e+00
 63        -1.8079946872e-01
 64         0.0000000000e+00
 65         0.0000000000e+00
 66         4.6854896302e-16
 67         0.0000000000e+00
 68        -1.9665030087e-02
 69         0.0000000000e+00
 70         0.0000000000e+00
 71         1.5012211867e-16
 72         0.0000000000e+00
 73         0.0000000000e+00
 74         0.0000000000e+00
 Sym= A1
 Ene=         2.7065038216e-01
 Spin= Alpha
 Occup=         0.0000000000e+00
  1         1.2844496316e-01
  2        -2.3733482404e+00
  3        -3.5393940813e+00
  4         0.0000000000e+00
  5         0.0000000000e+00
  6         1.5997916445e-02
  7         0.0000000000e+00
  8         0.0000000000e+00
  9         1.3813295555e+00
 10        -8.1038715015e-02
 11         0.0000000000e+00
 12         0.0000000000e+00
 13         2.3406356307e-16
 14         0.0000000000e+00
 15        -3.5894171474e-02
 16        -4.2027482873e-01
 17        -2.2480044854e-01
 18         5.7985285707e+00
 19         0.0000000000e+00
 20         0.0000000000e+00
 21        -1.0625370759e-01
 22         0.0000000000e+00
 23         0.0000000000e+00
 24         8.5431222576e-01
 25         0.0000000000e+00
 26         0.0000000000e+00
 27         2.1739906328e+00
 28         6.4202171168e-03
 29         0.0000000000e+00
 30         0.0000000000e+00
 31        -7.8409047447e-16
 32         0.0000000000e+00
 33         1.3674638510e+00
 34         0.0000000000e+00
 35         0.0000000000e+00
 36         6.9450542372e-15
 37         0.0000000000e+00
 38         8.6160328814e-02
 39         0.0000000000e+00
 40         0.0000000000e+00
 41        -9.1171242678e-16
 42         0.0000000000e+00
 43         0.0000000000e+00
 44         0.0000000000e+00
 45        -4.3946491281e-02
 46         4.2636274151e-03
 47         5.2769988306e-03
 48        -8.7486652786e-01
 49         0.0000000000e+00
 50         0.0000000000e+00
 51         5.6242450736e-02
 52         0.0000000000e+00
 53         0.0000000000e+00
 54         5.5312530836e-02
 55         0.0000000000e+00
 56         0.0000000000e+00
 57        -2.3542070833e-01
 58        -2.4884065848e-03
 59         0.0000000000e+00
 60         0.0000000000e+00
 61        -1.9868609061e-16
 62         0.0000000000e+00
 63         5.8183874802e-02
 64         0.0000000000e+00
 65         0.0000000000e+00
 66         1.2818749817e-15
 67         0.0000000000e+00
 68         1.5067613135e-02
 69         0.0000000000e+00
 70         0.0000000000e+00
 71         5.5637988410e-17
 72         0.0000000000e+00
 73         0.0000000000e+00
 74         0.0000000000e+00
 Sym= A1
 Ene=         4.4628196039e-01
 Spin= Alpha
 Occup=         0.0000000000e+00
  1         3.3804384504e-02
  2        -1.4317852165e+00
  3         9.4704854153e-01
  4         0.0000000000e+00
  5         0.0000000000e+00
  6         4.4600735282e-02
  7         0.0000000000e+00
  8         0.0000000000e+00
  9         9.8650780092e-01
 10        -8.9098081731e-02
 11         0.0000000000e+00
 12         0.0000000000e+00
 13         3.4572365286e-16
 14         0.0000000000e+00
 15        -1.8246976541e-01
 16        -4.9555657153e-01
 17        -2.5751660299e-01
 18        -1.2639168225e+00
 19         0.0000000000e+00
 20         0.0000000000e+00
 21         1.1100210018e-01
 22         0.0000000000e+00
 23         0.0000000000e+00
 24         2.3856526294e+00
 25         0.0000000000e+00
 26         0.0000000000e+00
 27        -1.0669480131e+00
 28        -4.8036856024e-02
 29         0.0000000000e+00
 30         0.0000000000e+00
 31         2.9572566902e-16
 32         0.0000000000e+00
 33         4.6006971789e-01
 34         0.0000000000e+00
 35         0.0000000000e+00
 36        -9.5650198302e-15
 37         0.0000000000e+00
 38         1.2569466548e-01
 39         0.0000000000e+00
 40         0.0000000000e+00
 41        -2.1449226256e-16
 42         0.0000000000e+00
 43         0.0000000000e+00
 44         0.0000000000e+00
 45         2.0614997710e-02
 46         1.1273386074e-01
 47        -2.6990220448e-03
 48         1.5510777674e+00
 49         0.0000000000e+00
 50         0.0000000000e+00
 51        -7.6102270232e-02
 52         0.0000000000e+00
 53         0.0000000000e+00
 54         7.5208956815e-02
 55         0.0000000000e+00
 56         0.0000000000e+00
 57         2.3786064354e+00
 58        -3.7131640775e-02
 59         0.0000000000e+00
 60         0.0000000000e+00
 61        -2.6548860077e-16
 62         0.0000000000e+00
 63         2.2937638342e-01
 64         0.0000000000e+00
 65         0.0000000000e+00
 66        -1.6332601519e-16
 67         0.0000000000e+00
 68         2.7328480614e-02
 69         0.0000000000e+00
 70         0.0000000000e+00
 71        -7.3042205593e-17
 72         0.0000000000e+00
 73         0.0000000000e+00
 74         0.0000000000e+00
 Sym= A1
 Ene=         4.8439795982e-01
 Spin= Alpha
 Occup=         0.0000000000e+00
  1        -4.3091891458e-16
  2         2.2898283742e-14
  3        -4.3824746983e-14
  4         0.0000000000e+00
  5         0.0000000000e+00
  6        -3.9899479499e-17
  7         0.0000000000e+00
  8         0.0000000000e+00
  9         3.6215520270e-15
 10        -2.5569542655e-16
 11         0.0000000000e+00
 12         0.0000000000e+00
 13        -2.9142757317e-04
 14         0.0000000000e+00
 15        -7.1942595227e-16
 16        -3.6020458546e-15
 17         8.2874353685e-16
 18         2.2345604759e-14
 19         0.0000000000e+00
 20         0.0000000000e+00
 21        -5.6108686731e-15
 22         0.0000000000e+00
 23         0.0000000000e+00
 24        -1.7036899117e-14
 25         0.0000000000e+00
 26         0.0000000000e+00
 27         3.6807649567e-14
 28         9.2815598532e-17
 29         0.0000000000e+00
 30         0.0000000000e+00
 31         1.6655313043e-02
 32         0.0000000000e+00
 33        -1.2092778074e-14
 34         0.0000000000e+00
 35         0.0000000000e+00
 36        -9.8104525319e-01
 37         0.0000000000e+00
 38         1.1255143287e-15
 39         0.0000000000e+00
 40         0.0000000000e+00
 41         7.7735876651e-03
 42         0.0000000000e+00
 43         0.0000000000e+00
 44         0.0000000000e+00
 45        -1.4806753178e-15
 46        -6.6437855519e-15
 47        -1.2403365355e-15
 48         1.9431001800e-14
 49         0.0000000000e+00
 50         0.0000000000e+00
 51        -1.6628322714e-15
 52         0.0000000000e+00
 53         0.0000000000e+00
 54        -1.9527867488e-16
 55         0.0000000000e+00
 56         0.0000000000e+00
 57        -1.6463633394e-14
 58         6.0322697012e-16
 59         0.0000000000e+00
 60         0.0000000000e+00
 61        -1.1717099563e-02
 62         0.0000000000e+00
 63        -1.9720652890e-15
 64         0.0000000000e+00
 65         0.0000000000e+00
 66        -7.1978255250e-02
 67         0.0000000000e+00
 68        -1.6525496274e-17
 69         0.0000000000e+00
 70         0.0000000000e+00
 71         1.5690346648e-04
 72         0.0000000000e+00
 73         0.0000000000e+00
 74         0.0000000000e+00
 Sym= A2
 Ene=         4.8439795982e-01
 Spin= Alpha
 Occup=         0.0000000000e+00
  1         0.0000000000e+00
  2         0.0000000000e+00
  3         0.0000000000e+00
  4         0.0000000000e+00
  5         0.0000000000e+00
  6         0.0000000000e+00
  7         0.0000000000e+00
  8         0.0000000000e+00
  9         0.0000000000e+00
 10         0.0000000000e+00
 11         0.0000000000e+00
 12         0.0000000000e+00
 13         0.0000000000e+00
 14        -2.9142757317e-04
 15         0.0000000000e+00
 16         0.0000000000e+00
 17         0.0000000000e+00
 18         0.0000000000e+00
 19         0.0000000000e+00
 20         0.0000000000e+00
 21         0.0000000000e+00
 22         0.0000000000e+00
 23         0.0000000000e+00
 24         0.0000000000e+00
 25         0.0000000000e+00
 26         0.0000000000e+00
 27         0.0000000000e+00
 28         0.0000000000e+00
 29         0.0000000000e+00
 30         0.0000000000e+00
 31         0.0000000000e+00
 32         1.6655313043e-02
 33         0.0000000000e+00
 34         0.0000000000e+00
 35         0.0000000000e+00
 36         0.0000000000e+00
 37        -9.8104525319e-01
 38         0.0000000000e+00
 39         0.0000000000e+00
 40         0.0000000000e+00
 41         0.0000000000e+00
 42         7.7735876651e-03
 43         0.0000000000e+00
 44         0.0000000000e+00
 45         0.0000000000e+00
 46         0.0000000000e+00
 47         0.0000000000e+00
 48         0.0000000000e+00
 49         0.0000000000e+00
 50         0.0000000000e+00
 51         0.0000000000e+00
 52         0.0000000000e+00
 53         0.0000000000e+00
 54         0.0000000000e+00
 55         0.0000000000e+00
 56         0.0000000000e+00
 57         0.0000000000e+00
 58         0.0000000000e+00
 59         0.0000000000e+00
 60         0.0000000000e+00
 61         0.0000000000e+00
 62        -1.1717099563e-02
 63         0.0000000000e+00
 64         0.0000000000e+00
 65         0.0000000000e+00
 66         0.0000000000e+00
 67        -7.1978255250e-02
 68         0.0000000000e+00
 69         0.0000000000e+00
 70         0.0000000000e+00
 71         0.0000000000e+00
 72         1.5690346648e-04
 73         0.0000000000e+00
 74         0.0000000000e+00
 Sym= B2
 Ene=         5.0957091687e-01
 Spin= Alpha
 Occup=         0.0000000000e+00
  1         0.0000000000e+00
  2         0.0000000000e+00
  3         0.0000000000e+00
  4         0.0000000000e+00
  5         5.6685089679e-02
  6         0.0000000000e+00
  7         0.0000000000e+00
  8        -7.9077091207e-01
  9         0.0000000000e+00
 10         0.0000000000e+00
 11         0.0000000000e+00
 12         2.5801728840e-02
 13         0.0000000000e+00
 14         0.0000000000e+00
 15         0.0000000000e+00
 16         0.0000000000e+00
 17         0.0000000000e+00
 18         0.0000000000e+00
 19         0.0000000000e+00
 20         1.0926768247e-01
 21         0.0000000000e+00
 22         0.0000000000e+00
 23         1.5733624286e-01
 24         0.0000000000e+00
 25         0.0000000000e+00
 26        -3.1464343373e-01
 27         0.0000000000e+00
 28         0.0000000000e+00
 29         0.0000000000e+00
 30         2.3657703967e-03
 31         0.0000000000e+00
 32         0.0000000000e+00
 33         0.0000000000e+00
 34         0.0000000000e+00
 35         2.9148994960e-01
 36         0.0000000000e+00
 37         0.0000000000e+00
 38         0.0000000000e+00
 39         0.0000000000e+00
 40         9.2005624792e-05
 41         0.0000000000e+00
 42         0.0000000000e+00
 43         0.0000000000e+00
 44         6.2860681046e-16
 45         0.0000000000e+00
 46         0.0000000000e+00
 47         0.0000000000e+00
 48         0.0000000000e+00
 49         0.0000000000e+00
 50        -2.2789467538e-01
 51         0.0000000000e+00
 52         0.0000000000e+00
 53        -6.0396461487e-01
 54         0.0000000000e+00
 55         0.0000000000e+00
 56         1.2279221676e+00
 57         0.0000000000e+00
 58         0.0000000000e+00
 59         0.0000000000e+00
 60        -1.6390231525e-02
 61         0.0000000000e+00
 62         0.0000000000e+00
 63         0.0000000000e+00
 64         0.0000000000e+00
 65         9.5331259576e-02
 66         0.0000000000e+00
 67         0.0000000000e+00
 68         0.0000000000e+00
 69         0.0000000000e+00
 70         4.9517353103e-03
 71         0.0000000000e+00
 72         0.0000000000e+00
 73         0.0000000000e+00
 74         1.4582026091e-16
 Sym= B1
 Ene=         5.0957091687e-01
 Spin= Alpha
 Occup=         0.0000000000e+00
  1         0.0000000000e+00
  2         0.0000000000e+00
  3         0.0000000000e+00
  4         5.6685089679e-02
  5         0.0000000000e+00
  6         0.0000000000e+00
  7        -7.9077091207e-01
  8         0.0000000000e+00
  9         0.0000000000e+00
 10         0.0000000000e+00
 11         2.5801728840e-02
 12         0.0000000000e+00
 13         0.0000000000e+00
 14         0.0000000000e+00
 15         0.0000000000e+00
 16         0.0000000000e+00
 17         0.0000000000e+00
 18         0.0000000000e+00
 19         1.0926768247e-01
 20         0.0000000000e+00
 21         0.0000000000e+00
 22         1.5733624286e-01
 23         0.0000000000e+00
 24         0.0000000000e+00
 25        -3.1464343373e-01
 26         0.0000000000e+00
 27         0.0000000000e+00
 28         0.0000000000e+00
 29         2.3657703967e-03
 30         0.0000000000e+00
 31         0.0000000000e+00
 32         0.0000000000e+00
 33         0.0000000000e+00
 34         2.9148994960e-01
 35         0.0000000000e+00
 36         0.0000000000e+00
 37         0.0000000000e+00
 38         0.0000000000e+00
 39         9.2005624607e-05
 40         0.0000000000e+00
 41         0.0000000000e+00
 42         0.0000000000e+00
 43         4.1534292083e-17
 44         0.0000000000e+00
 45         0.0000000000e+00
 46         0.0000000000e+00
 47         0.0000000000e+00
 48         0.0000000000e+00
 49        -2.2789467538e-01
 50         0.0000000000e+00
 51         0.0000000000e+00
 52        -6.0396461487e-01
 53         0.0000000000e+00
 54         0.0000000000e+00
 55         1.2279221676e+00
 56         0.0000000000e+00
 57         0.0000000000e+00
 58         0.0000000000e+00
 59        -1.6390231525e-02
 60         0.0000000000e+00
 61         0.0000000000e+00
 62         0.0000000000e+00
 63         0.0000000000e+00
 64         9.5331259576e-02
 65         0.0000000000e+00
 66         0.0000000000e+00
 67         0.0000000000e+00
 68         0.0000000000e+00
 69         4.9517353103e-03
 70         0.0000000000e+00
 71         0.0000000000e+00
 72         0.0000000000e+00
 73         6.3449607319e-16
 74         0.0000000000e+00
 Sym= B2
 Ene=         5.7694957361e-01
 Spin= Alpha
 Occup=         0.0000000000e+00
  1         0.0000000000e+00
  2         0.0000000000e+00
  3         0.0000000000e+00
  4         0.0000000000e+00
  5         2.3554650788e-02
  6         0.0000000000e+00
  7         0.0000000000e+00
  8        -5.6185387873e-01
  9         0.0000000000e+00
 10         0.0000000000e+00
 11         0.0000000000e+00
 12         1.8133036779e-02
 13         0.0000000000e+00
 14         0.0000000000e+00
 15         0.0000000000e+00
 16         0.0000000000e+00
 17         0.0000000000e+00
 18         0.0000000000e+00
 19         0.0000000000e+00
 20         4.5894987658e-03
 21         0.0000000000e+00
 22         0.0000000000e+00
 23         3.3778490309e-01
 24         0.0000000000e+00
 25         0.0000000000e+00
 26         1.0330992559e+00
 27         0.0000000000e+00
 28         0.0000000000e+00
 29         0.0000000000e+00
 30        -2.9270905254e-02
 31         0.0000000000e+00
 32         0.0000000000e+00
 33         0.0000000000e+00
 34         0.0000000000e+00
 35        -8.6135555117e-01
 36         0.0000000000e+00
 37         0.0000000000e+00
 38         0.0000000000e+00
 39         0.0000000000e+00
 40         1.1124834118e-01
 41         0.0000000000e+00
 42         0.0000000000e+00
 43         0.0000000000e+00
 44        -4.6619384230e-16
 45         0.0000000000e+00
 46         0.0000000000e+00
 47         0.0000000000e+00
 48         0.0000000000e+00
 49         0.0000000000e+00
 50         6.8929200694e-02
 51         0.0000000000e+00
 52         0.0000000000e+00
 53         1.3473634346e-01
 54         0.0000000000e+00
 55         0.0000000000e+00
 56        -1.6374879949e+00
 57         0.0000000000e+00
 58         0.0000000000e+00
 59         0.0000000000e+00
 60         3.2097098922e-02
 61         0.0000000000e+00
 62         0.0000000000e+00
 63         0.0000000000e+00
 64         0.0000000000e+00
 65        -1.3475646646e-01
 66         0.0000000000e+00
 67         0.0000000000e+00
 68         0.0000000000e+00
 69         0.0000000000e+00
 70        -2.7159484879e-02
 71         0.0000000000e+00
 72         0.0000000000e+00
 73         0.0000000000e+00
 74         1.5826031498e-16
 Sym= B1
 Ene=         5.7694957361e-01
 Spin= Alpha
 Occup=         0.0000000000e+00
  1         0.0000000000e+00
  2         0.0000000000e+00
  3         0.0000000000e+00
  4         2.3554650788e-02
  5         0.0000000000e+00
  6         0.0000000000e+00
  7        -5.6185387873e-01
  8         0.0000000000e+00
  9         0.0000000000e+00
 10         0.0000000000e+00
 11         1.8133036779e-02
 12         0.0000000000e+00
 13         0.0000000000e+00
 14         0.0000000000e+00
 15         0.0000000000e+00
 16         0.0000000000e+00
 17         0.0000000000e+00
 18         0.0000000000e+00
 19         4.5894987662e-03
 20         0.0000000000e+00
 21         0.0000000000e+00
 22         3.3778490309e-01
 23         0.0000000000e+00
 24         0.0000000000e+00
 25         1.0330992559e+00
 26         0.0000000000e+00
 27         0.0000000000e+00
 28         0.0000000000e+00
 29        -2.9270905254e-02
 30         0.0000000000e+00
 31         0.0000000000e+00
 32         0.0000000000e+00
 33         0.0000000000e+00
 34        -8.6135555117e-01
 35         0.0000000000e+00
 36         0.0000000000e+00
 37         0.0000000000e+00
 38         0.0000000000e+00
 39         1.1124834118e-01
 40         0.0000000000e+00
 41         0.0000000000e+00
 42         0.0000000000e+00
 43        -2.9140327035e-17
 44         0.0000000000e+00
 45         0.0000000000e+00
 46         0.0000000000e+00
 47         0.0000000000e+00
 48         0.0000000000e+00
 49         6.8929200694e-02
 50         0.0000000000e+00
 51         0.0000000000e+00
 52         1.3473634346e-01
 53         0.0000000000e+00
 54         0.0000000000e+00
 55        -1.6374879949e+00
 56         0.0000000000e+00
 57         0.0000000000e+00
 58         0.0000000000e+00
 59         3.2097098922e-02
 60         0.0000000000e+00
 61         0.0000000000e+00
 62         0.0000000000e+00
 63         0.0000000000e+00
 64        -1.3475646646e-01
 65         0.0000000000e+00
 66         0.0000000000e+00
 67         0.0000000000e+00
 68         0.0000000000e+00
 69        -2.7159484879e-02
 70         0.0000000000e+00
 71         0.0000000000e+00
 72         0.0000000000e+00
 73        -1.9707007574e-16
 74         0.0000000000e+00
 Sym= A1
 Ene=         6.5808046584e-01
 Spin= Alpha
 Occup=         0.0000000000e+00
  1         3.7615781425e-02
  2        -1.3135389343e+00
  3         9.1907044046e-01
  4         0.0000000000e+00
  5         0.0000000000e+00
  6         1.4208053951e-02
  7         0.0000000000e+00
  8         0.0000000000e+00
  9        -6.4088093680e-01
 10         4.3007956611e-02
 11         0.0000000000e+00
 12         0.0000000000e+00
 13         4.5086336754e-16
 14         0.0000000000e+00
 15         5.6016199709e-02
 16         6.3546277745e-02
 17        -2.3518575954e-02
 18         1.3408973250e+00
 19         0.0000000000e+00
 20         0.0000000000e+00
 21         2.7668715674e-01
 22         0.0000000000e+00
 23         0.0000000000e+00
 24        -3.4988613572e-01
 25         0.0000000000e+00
 26         0.0000000000e+00
 27        -6.5102939825e-01
 28         5.2101751439e-02
 29         0.0000000000e+00
 30         0.0000000000e+00
 31         4.8225115921e-16
 32         0.0000000000e+00
 33         1.2065956184e+00
 34         0.0000000000e+00
 35         0.0000000000e+00
 36        -1.3874285855e-14
 37         0.0000000000e+00
 38        -7.9157916752e-02
 39         0.0000000000e+00
 40         0.0000000000e+00
 41        -1.0779801608e-16
 42         0.0000000000e+00
 43         0.0000000000e+00
 44         0.0000000000e+00
 45         1.1194874561e-02
 46         2.4465172261e-01
 47         7.1337920163e-02
 48        -2.3662833590e+00
 49         0.0000000000e+00
 50         0.0000000000e+00
 51         2.0310748479e-01
 52         0.0000000000e+00
 53         0.0000000000e+00
 54        -3.7766764248e-02
 55         0.0000000000e+00
 56         0.0000000000e+00
 57        -5.0586085657e-01
 58        -1.0774822042e-02
 59         0.0000000000e+00
 60         0.0000000000e+00
 61        -5.8405248933e-16
 62         0.0000000000e+00
 63        -1.2460489636e-01
 64         0.0000000000e+00
 65         0.0000000000e+00
 66         2.0739763744e-15
 67         0.0000000000e+00
 68         1.2591975134e-03
 69         0.0000000000e+00
 70         0.0000000000e+00
 71         1.9906788047e-16
 72         0.0000000000e+00
 73         0.0000000000e+00
 74         0.0000000000e+00
 Sym= A1
 Ene=         1.0861174870e+00
 Spin= Alpha
 Occup=         0.0000000000e+00
  1         7.1766751663e-02
  2         4.9796677061e-01
  3         9.4073456537e-01
  4         0.0000000000e+00
  5         0.0000000000e+00
  6        -4.6204454191e-02
  7         0.0000000000e+00
  8         0.0000000000e+00
  9        -3.9932499581e-01
 10         9.0509916059e-02
 11         0.0000000000e+00
 12         0.0000000000e+00
 13        -4.6533381768e-16
 14         0.0000000000e+00
 15         2.9177233683e-01
 16         9.6338248625e-01
 17         2.8692028935e-01
 18         1.7680235081e+00
 19         0.0000000000e+00
 20         0.0000000000e+00
 21        -2.1357351335e-01
 22         0.0000000000e+00
 23         0.0000000000e+00
 24        -1.9473631158e+00
 25         0.0000000000e+00
 26         0.0000000000e+00
 27        -2.3062466233e+00
 28        -3.4786170204e-02
 29         0.0000000000e+00
 30         0.0000000000e+00
 31        -5.8621779062e-16
 32         0.0000000000e+00
 33         1.0363127104e+00
 34         0.0000000000e+00
 35         0.0000000000e+00
 36        -4.6399530240e-15
 37         0.0000000000e+00
 38        -1.9750078915e-01
 39         0.0000000000e+00
 40         0.0000000000e+00
 41         4.1842388725e-16
 42         0.0000000000e+00
 43         0.0000000000e+00
 44         0.0000000000e+00
 45         1.5807402445e-01
 46         4.6107108876e-01
 47         1.0242911794e-01
 48        -5.5311965982e+00
 49         0.0000000000e+00
 50         0.0000000000e+00
 51        -2.1836254179e-01
 52         0.0000000000e+00
 53         0.0000000000e+00
 54        -1.0964037921e+00
 55         0.0000000000e+00
 56         0.0000000000e+00
 57        -6.5451276401e-01
 58         5.0166178015e-03
 59         0.0000000000e+00
 60         0.0000000000e+00
 61        -6.5072045454e-16
 62         0.0000000000e+00
 63         1.9128582774e-01
 64         0.0000000000e+00
 65         0.0000000000e+00
 66         8.8426306661e-15
 67         0.0000000000e+00
 68         5.4855663212e-04
 69         0.0000000000e+00
 70         0.0000000000e+00
 71        -1.8698923219e-16
 72         0.0000000000e+00
 73         0.0000000000e+00
 74         0.0000000000e+00
 Sym= B2
 Ene=         1.0950584669e+00
 Spin= Alpha
 Occup=         0.0000000000e+00
  1         0.0000000000e+00
  2         0.0000000000e+00
  3         0.0000000000e+00
  4         0.0000000000e+00
  5         8.3549808742e-02
  6         0.0000000000e+00
  7         0.0000000000e+00
  8        -1.5473883032e+00
  9         0.0000000000e+00
 10         0.0000000000e+00
 11         0.0000000000e+00
 12         6.2416294870e-02
 13         0.0000000000e+00
 14         0.0000000000e+00
 15         0.0000000000e+00
 16         0.0000000000e+00
 17         0.0000000000e+00
 18         0.0000000000e+00
 19         0.0000000000e+00
 20         1.2171698112e-02
 21         0.0000000000e+00
 22         0.0000000000e+00
 23         3.1053111313e-01
 24         0.0000000000e+00
 25         0.0000000000e+00
 26         1.4792646597e-01
 27         0.0000000000e+00
 28         0.0000000000e+00
 29         0.0000000000e+00
 30        -1.1595424847e-02
 31         0.0000000000e+00
 32         0.0000000000e+00
 33         0.0000000000e+00
 34         0.0000000000e+00
 35         1.7171547853e+00
 36         0.0000000000e+00
 37         0.0000000000e+00
 38         0.0000000000e+00
 39         0.0000000000e+00
 40         8.6416967201e-02
 41         0.0000000000e+00
 42         0.0000000000e+00
 43         0.0000000000e+00
 44         8.8518773540e-16
 45         0.0000000000e+00
 46         0.0000000000e+00
 47         0.0000000000e+00
 48         0.0000000000e+00
 49         0.0000000000e+00
 50         1.5115814615e-01
 51         0.0000000000e+00
 52         0.0000000000e+00
 53         4.8760611879e-01
 54         0.0000000000e+00
 55         0.0000000000e+00
 56         2.7077752157e-01
 57         0.0000000000e+00
 58         0.0000000000e+00
 59         0.0000000000e+00
 60        -2.4374700710e-02
 61         0.0000000000e+00
 62         0.0000000000e+00
 63         0.0000000000e+00
 64         0.0000000000e+00
 65        -9.9685658455e-02
 66         0.0000000000e+00
 67         0.0000000000e+00
 68         0.0000000000e+00
 69         0.0000000000e+00
 70        -1.0803315205e-02
 71         0.0000000000e+00
 72         0.0000000000e+00
 73         0.0000000000e+00
 74        -2.8232019070e-16
 Sym= B1
 Ene=         1.0950584669e+00
 Spin= Alpha
 Occup=         0.0000000000e+00
  1         0.0000000000e+00
  2         0.0000000000e+00
  3         0.0000000000e+00
  4         8.3549808742e-02
  5         0.0000000000e+00
  6         0.0000000000e+00
  7        -1.5473883032e+00
  8         0.0000000000e+00
  9         0.0000000000e+00
 10         0.0000000000e+00
 11         6.2416294870e-02
 12         0.0000000000e+00
 13         0.0000000000e+00
 14         0.0000000000e+00
 15         0.0000000000e+00
 16         0.0000000000e+00
 17         0.0000000000e+00
 18         0.0000000000e+00
 19         1.2171698112e-02
 20         0.0000000000e+00
 21         0.0000000000e+00
 22         3.1053111313e-01
 23         0.0000000000e+00
 24         0.0000000000e+00
 25         1.4792646597e-01
 26         0.0000000000e+00
 27         0.0000000000e+00
 28         0.0000000000e+00
 29        -1.1595424847e-02
 30         0.0000000000e+00
 31         0.0000000000e+00
 32         0.0000000000e+00
 33         0.0000000000e+00
 34         1.7171547853e+00
 35         0.0000000000e+00
 36         0.0000000000e+00
 37         0.0000000000e+00
 38         0.0000000000e+00
 39         8.6416967201e-02
 40         0.0000000000e+00
 41         0.0000000000e+00
 42         0.0000000000e+00
 43         7.9579082684e-16
 44         0.0000000000e+00
 45         0.0000000000e+00
 46         0.0000000000e+00
 47         0.0000000000e+00
 48         0.0000000000e+00
 49         1.5115814615e-01
 50         0.0000000000e+00
 51         0.0000000000e+00
 52         4.8760611878e-01
 53         0.0000000000e+00
 54         0.0000000000e+00
 55         2.7077752157e-01
 56         0.0000000000e+00
 57         0.0000000000e+00
 58         0.0000000000e+00
 59        -2.4374700710e-02
 60         0.0000000000e+00
 61         0.0000000000e+00
 62         0.0000000000e+00
 63         0.0000000000e+00
 64        -9.9685658455e-02
 65         0.0000000000e+00
 66         0.0000000000e+00
 67         0.0000000000e+00
 68         0.0000000000e+00
 69        -1.0803315205e-02
 70         0.0000000000e+00
 71         0.0000000000e+00
 72         0.0000000000e+00
 73        -3.1269444913e-16
 74         0.0000000000e+00
 Sym= A1
 Ene=         1.3233968112e+00
 Spin= Alpha
 Occup=         0.0000000000e+00
  1         6.9424915928e-02
  2         6.9504969789e+00
  3         2.3020258272e+00
  4         0.0000000000e+00
  5         0.0000000000e+00
  6         1.0553190659e-02
  7         0.0000000000e+00
  8         0.0000000000e+00
  9        -4.1165091307e+00
 10         1.6236901447e-01
 11         0.0000000000e+00
 12         0.0000000000e+00
 13        -2.2234234331e-16
 14         0.0000000000e+00
 15        -3.8903480956e-01
 16        -1.2719529637e+00
 17        -5.4581114887e-01
 18        -4.0787645317e+00
 19         0.0000000000e+00
 20         0.0000000000e+00
 21        -1.9097728513e-01
 22         0.0000000000e+00
 23         0.0000000000e+00
 24        -5.4092525044e+00
 25         0.0000000000e+00
 26         0.0000000000e+00
 27        -2.2735164066e+00
 28         1.1791375871e-01
 29         0.0000000000e+00
 30         0.0000000000e+00
 31        -5.2954401758e-16
 32         0.0000000000e+00
 33        -2.0041521983e+00
 34         0.0000000000e+00
 35         0.0000000000e+00
 36         7.0842179348e-17
 37         0.0000000000e+00
 38        -3.7690010823e-01
 39         0.0000000000e+00
 40         0.0000000000e+00
 41        -1.2081377693e-16
 42         0.0000000000e+00
 43         0.0000000000e+00
 44         0.0000000000e+00
 45        -4.0415993061e-02
 46        -6.5232814111e-02
 47         3.8048981590e-02
 48        -1.9696512018e+00
 49         0.0000000000e+00
 50         0.0000000000e+00
 51        -6.1412605127e-02
 52         0.0000000000e+00
 53         0.0000000000e+00
 54        -1.0252842970e+00
 55         0.0000000000e+00
 56         0.0000000000e+00
 57        -4.9762300169e-01
 58        -1.4381400847e-02
 59         0.0000000000e+00
 60         0.0000000000e+00
 61         3.0402253235e-16
 62         0.0000000000e+00
 63        -5.6533522571e-01
 64         0.0000000000e+00
 65         0.0000000000e+00
 66         3.2839258265e-15
 67         0.0000000000e+00
 68        -5.2970471658e-02
 69         0.0000000000e+00
 70         0.0000000000e+00
 71         3.0481911281e-18
 72         0.0000000000e+00
 73         0.0000000000e+00
 74         0.0000000000e+00
 Sym= A1
 Ene=         1.4682265317e+00
 Spin= Alpha
 Occup=         0.0000000000e+00
  1         3.0098221367e-14
  2        -3.9079930855e-13
  3        -2.8746033292e-14
  4         0.0000000000e+00
  5         0.0000000000e+00
  6         2.0438577057e-14
  7         0.0000000000e+00
  8         0.0000000000e+00
  9         1.0381878696e-13
 10        -1.5826429310e-14
 11         0.0000000000e+00
 12         0.0000000000e+00
 13         4.2790950780e-02
 14         0.0000000000e+00
 15        -1.7636622502e-14
 16        -2.4601364096e-14
 17        -1.5114982176e-14
 18         7.9461293723e-14
 19         0.0000000000e+00
 20         0.0000000000e+00
 21        -3.8625355154e-14
 22         0.0000000000e+00
 23         0.0000000000e+00
 24         3.1209938312e-13
 25         0.0000000000e+00
 26         0.0000000000e+00
 27         1.2547555146e-13
 28        -1.4142872436e-14
 29         0.0000000000e+00
 30         0.0000000000e+00
 31        -2.6126567111e-02
 32         0.0000000000e+00
 33         1.3649294109e-13
 34         0.0000000000e+00
 35         0.0000000000e+00
 36         4.1023368636e-01
 37         0.0000000000e+00
 38         4.4007159359e-14
 39         0.0000000000e+00
 40         0.0000000000e+00
 41         1.3157318808e-01
 42         0.0000000000e+00
 43         0.0000000000e+00
 44         0.0000000000e+00
 45        -1.5753022005e-14
 46        -5.5167505943e-14
 47        -2.2536588040e-14
 48         2.8079216339e-13
 49         0.0000000000e+00
 50         0.0000000000e+00
 51        -9.4631660738e-15
 52         0.0000000000e+00
 53         0.0000000000e+00
 54         5.4772687459e-14
 55         0.0000000000e+00
 56         0.0000000000e+00
 57         1.1529477174e-13
 58         3.2368148250e-15
 59         0.0000000000e+00
 60         0.0000000000e+00
 61         6.6226766372e-03
 62         0.0000000000e+00
 63         5.7968619866e-14
 64         0.0000000000e+00
 65         0.0000000000e+00
 66        -9.9121082042e-01
 67         0.0000000000e+00
 68         8.0541917079e-15
 69         0.0000000000e+00
 70         0.0000000000e+00
 71        -4.5405458742e-03
 72         0.0000000000e+00
 73         0.0000000000e+00
 74         0.0000000000e+00
 Sym= A2
 Ene=         1.4682265317e+00
 Spin= Alpha
 Occup=         0.0000000000e+00
  1         0.0000000000e+00
  2         0.0000000000e+00
  3         0.0000000000e+00
  4         0.0000000000e+00
  5         0.0000000000e+00
  6         0.0000000000e+00
  7         0.0000000000e+00
  8         0.0000000000e+00
  9         0.0000000000e+00
 10         0.0000000000e+00
 11         0.0000000000e+00
 12         0.0000000000e+00
 13         0.0000000000e+00
 14         4.2790950780e-02
 15         0.0000000000e+00
 16         0.0000000000e+00
 17         0.0000000000e+00
 18         0.0000000000e+00
 19         0.0000000000e+00
 20         0.0000000000e+00
 21         0.0000000000e+00
 22         0.0000000000e+00
 23         0.0000000000e+00
 24         0.0000000000e+00
 25         0.0000000000e+00
 26         0.0000000000e+00
 27         0.0000000000e+00
 28         0.0000000000e+00
 29         0.0000000000e+00
 30         0.0000000000e+00
 31         0.0000000000e+00
 32        -2.6126567111e-02
 33         0.0000000000e+00
 34         0.0000000000e+00
 35         0.0000000000e+00
 36         0.0000000000e+00
 37         4.1023368636e-01
 38         0.0000000000e+00
 39         0.0000000000e+00
 40         0.0000000000e+00
 41         0.0000000000e+00
 42         1.3157318808e-01
 43         0.0000000000e+00
 44         0.0000000000e+00
 45         0.0000000000e+00
 46         0.0000000000e+00
 47         0.0000000000e+00
 48         0.0000000000e+00
 49         0.0000000000e+00
 50         0.0000000000e+00
 51         0.0000000000e+00
 52         0.0000000000e+00
 53         0.0000000000e+00
 54         0.0000000000e+00
 55         0.0000000000e+00
 56         0.0000000000e+00
 57         0.0000000000e+00
 58         0.0000000000e+00
 59         0.0000000000e+00
 60         0.0000000000e+00
 61         0.0000000000e+00
 62         6.6226766372e-03
 63         0.0000000000e+00
 64         0.0000000000e+00
 65         0.0000000000e+00
 66         0.0000000000e+00
 67        -9.9121082042e-01
 68         0.0000000000e+00
 69         0.0000000000e+00
 70         0.0000000000e+00
 71         0.0000000000e+00
 72        -4.5405458742e-03
 73         0.0000000000e+00
 74         0.0000000000e+00
 Sym= A1
 Ene=         1.4984153312e+00
 Spin= Alpha
 Occup=         0.0000000000e+00
  1         3.7782646011e-01
  2        -5.5651614995e+00
  3        -6.5169777114e-01
  4         0.0000000000e+00
  5         0.0000000000e+00
  6         2.8533960609e-01
  7         0.0000000000e+00
  8         0.0000000000e+00
  9         1.5895417397e+00
 10        -2.2804948159e-01
 11         0.0000000000e+00
 12         0.0000000000e+00
 13        -1.5856935593e-15
 14         0.0000000000e+00
 15        -2.3394076736e-01
 16        -3.3082289453e-01
 17        -2.1331204972e-01
 18         1.0943030177e+00
 19         0.0000000000e+00
 20         0.0000000000e+00
 21        -4.5879835551e-01
 22         0.0000000000e+00
 23         0.0000000000e+00
 24         4.4979497195e+00
 25         0.0000000000e+00
 26         0.0000000000e+00
 27         2.1269310219e+00
 28        -2.1134103291e-01
 29         0.0000000000e+00
 30         0.0000000000e+00
 31         8.3558003594e-16
 32         0.0000000000e+00
 33         1.8344064337e+00
 34         0.0000000000e+00
 35         0.0000000000e+00
 36        -2.8333758690e-14
 37         0.0000000000e+00
 38         6.5471105359e-01
 39         0.0000000000e+00
 40         0.0000000000e+00
 41        -1.2300940775e-14
 42         0.0000000000e+00
 43         0.0000000000e+00
 44         0.0000000000e+00
 45        -2.5280473241e-01
 46        -8.7424452929e-01
 47        -3.3541155777e-01
 48         4.4710345064e+00
 49         0.0000000000e+00
 50         0.0000000000e+00
 51        -1.2508977612e-01
 52         0.0000000000e+00
 53         0.0000000000e+00
 54         8.8708022244e-01
 55         0.0000000000e+00
 56         0.0000000000e+00
 57         1.5993783120e+00
 58         3.7999475733e-02
 59         0.0000000000e+00
 60         0.0000000000e+00
 61        -1.0902316216e-16
 62         0.0000000000e+00
 63         7.7531481930e-01
 64         0.0000000000e+00
 65         0.0000000000e+00
 66         7.1218751252e-14
 67         0.0000000000e+00
 68         1.0339694162e-01
 69         0.0000000000e+00
 70         0.0000000000e+00
 71         2.9661309591e-16
 72         0.0000000000e+00
 73         0.0000000000e+00
 74         0.0000000000e+00
 Sym= B1
 Ene=         1.9102191163e+00
 Spin= Alpha
 Occup=         0.0000000000e+00
  1         0.0000000000e+00
  2         0.0000000000e+00
  3         0.0000000000e+00
  4         1.1583340845e-02
  5         0.0000000000e+00
  6         0.0000000000e+00
  7        -1.3875597795e-01
  8         0.0000000000e+00
  9         0.0000000000e+00
 10         0.0000000000e+00
 11         5.6490089871e-02
 12         0.0000000000e+00
 13         0.0000000000e+00
 14         0.0000000000e+00
 15         0.0000000000e+00
 16         0.0000000000e+00
 17         0.0000000000e+00
 18         0.0000000000e+00
 19        -1.2638173850e+00
 20         0.0000000000e+00
 21         0.0000000000e+00
 22         1.7192923823e+00
 23         0.0000000000e+00
 24         0.0000000000e+00
 25        -5.2219831099e-01
 26         0.0000000000e+00
 27         0.0000000000e+00
 28         0.0000000000e+00
 29         1.5701752447e-02
 30         0.0000000000e+00
 31         0.0000000000e+00
 32         0.0000000000e+00
 33         0.0000000000e+00
 34        -1.7389233271e-01
 35         0.0000000000e+00
 36         0.0000000000e+00
 37         0.0000000000e+00
 38         0.0000000000e+00
 39         4.8440541848e-02
 40         0.0000000000e+00
 41         0.0000000000e+00
 42         0.0000000000e+00
 43         4.8223465786e-16
 44         0.0000000000e+00
 45         0.0000000000e+00
 46         0.0000000000e+00
 47         0.0000000000e+00
 48         0.0000000000e+00
 49        -1.3934791365e-02
 50         0.0000000000e+00
 51         0.0000000000e+00
 52        -1.7837070015e-01
 53         0.0000000000e+00
 54         0.0000000000e+00
 55        -1.8751790902e-01
 56         0.0000000000e+00
 57         0.0000000000e+00
 58         0.0000000000e+00
 59         1.6045703093e-03
 60         0.0000000000e+00
 61         0.0000000000e+00
 62         0.0000000000e+00
 63         0.0000000000e+00
 64        -2.1614580539e-01
 65         0.0000000000e+00
 66         0.0000000000e+00
 67         0.0000000000e+00
 68         0.0000000000e+00
 69        -7.7117452907e-02
 70         0.0000000000e+00
 71         0.0000000000e+00
 72         0.0000000000e+00
 73        -1.3772372145e-16
 74         0.0000000000e+00
 Sym= B2
 Ene=         1.9102191163e+00
 Spin= Alpha
 Occup=         0.0000000000e+00
  1         0.0000000000e+00
  2         0.0000000000e+00
  3         0.0000000000e+00
  4         0.0000000000e+00
  5         1.1583340845e-02
  6         0.0000000000e+00
  7         0.0000000000e+00
  8        -1.3875597795e-01
  9         0.0000000000e+00
 10         0.0000000000e+00
 11         0.0000000000e+00
 12         5.6490089871e-02
 13         0.0000000000e+00
 14         0.0000000000e+00
 15         0.0000000000e+00
 16         0.0000000000e+00
 17         0.0000000000e+00
 18         0.0000000000e+00
 19         0.0000000000e+00
 20        -1.2638173850e+00
 21         0.0000000000e+00
 22         0.0000000000e+00
 23         1.7192923823e+00
 24         0.0000000000e+00
 25         0.0000000000e+00
 26        -5.2219831098e-01
 27         0.0000000000e+00
 28         0.0000000000e+00
 29         0.0000000000e+00
 30         1.5701752447e-02
 31         0.0000000000e+00
 32         0.0000000000e+00
 33         0.0000000000e+00
 34         0.0000000000e+00
 35        -1.7389233271e-01
 36         0.0000000000e+00
 37         0.0000000000e+00
 38         0.0000000000e+00
 39         0.0000000000e+00
 40         4.8440541848e-02
 41         0.0000000000e+00
 42         0.0000000000e+00
 43         0.0000000000e+00
 44         8.2150516666e-15
 45         0.0000000000e+00
 46         0.0000000000e+00
 47         0.0000000000e+00
 48         0.0000000000e+00
 49         0.0000000000e+00
 50        -1.3934791365e-02
 51         0.0000000000e+00
 52         0.0000000000e+00
 53        -1.7837070015e-01
 54         0.0000000000e+00
 55         0.0000000000e+00
 56        -1.8751790902e-01
 57         0.0000000000e+00
 58         0.0000000000e+00
 59         0.0000000000e+00
 60         1.6045703093e-03
 61         0.0000000000e+00
 62         0.0000000000e+00
 63         0.0000000000e+00
 64         0.0000000000e+00
 65        -2.1614580539e-01
 66         0.0000000000e+00
 67         0.0000000000e+00
 68         0.0000000000e+00
 69         0.0000000000e+00
 70        -7.7117452907e-02
 71         0.0000000000e+00
 72         0.0000000000e+00
 73         0.0000000000e+00
 74         1.8023873398e-16
 Sym= A1
 Ene=         1.9106724917e+00
 Spin= Alpha
 Occup=         0.0000000000e+00
  1         4.1216249599e-01
  2        -2.2439732090e+00
  3         5.4744899325e-01
  4         0.0000000000e+00
  5         0.0000000000e+00
  6         9.9156036205e-02
  7         0.0000000000e+00
  8         0.0000000000e+00
  9         1.3889728518e+00
 10        -2.1585221703e-01
 11         0.0000000000e+00
 12         0.0000000000e+00
 13         6.2864821220e-16
 14         0.0000000000e+00
 15        -3.1983474351e-01
 16        -1.0089413575e+00
 17        -5.7800842837e-01
 18        -2.2408141154e+00
 19         0.0000000000e+00
 20         0.0000000000e+00
 21        -2.3597165478e-01
 22         0.0000000000e+00
 23         0.0000000000e+00
 24         4.9256138891e+00
 25         0.0000000000e+00
 26         0.0000000000e+00
 27         2.3878721036e-01
 28         2.0182498962e-01
 29         0.0000000000e+00
 30         0.0000000000e+00
 31        -1.7295607910e-15
 32         0.0000000000e+00
 33        -1.2324341434e+00
 34         0.0000000000e+00
 35         0.0000000000e+00
 36        -2.3043852862e-15
 37         0.0000000000e+00
 38         2.9317526125e-01
 39         0.0000000000e+00
 40         0.0000000000e+00
 41        -1.0276597451e-15
 42         0.0000000000e+00
 43         0.0000000000e+00
 44         0.0000000000e+00
 45         3.8467894067e-01
 46         9.5437018308e-01
 47         2.7920921399e-01
 48         4.4916105303e+00
 49         0.0000000000e+00
 50         0.0000000000e+00
 51         2.1794439301e-01
 52         0.0000000000e+00
 53         0.0000000000e+00
 54         1.2732951768e+00
 55         0.0000000000e+00
 56         0.0000000000e+00
 57         1.7921058063e+00
 58         7.7582070881e-03
 59         0.0000000000e+00
 60         0.0000000000e+00
 61         2.9426605801e-16
 62         0.0000000000e+00
 63         1.1203211171e+00
 64         0.0000000000e+00
 65         0.0000000000e+00
 66         3.3437068242e-15
 67         0.0000000000e+00
 68         3.7703543106e-02
 69         0.0000000000e+00
 70         0.0000000000e+00
 71        -5.1295947511e-16
 72         0.0000000000e+00
 73         0.0000000000e+00
 74         0.0000000000e+00
 Sym= B2
 Ene=         2.0402121212e+00
 Spin= Alpha
 Occup=         0.0000000000e+00
  1         0.0000000000e+00
  2         0.0000000000e+00
  3         0.0000000000e+00
  4         0.0000000000e+00
  5         2.6506004717e-02
  6         0.0000000000e+00
  7         0.0000000000e+00
  8        -6.4554187701e-01
  9         0.0000000000e+00
 10         0.0000000000e+00
 11         0.0000000000e+00
 12        -4.2061292742e-02
 13         0.0000000000e+00
 14         0.0000000000e+00
 15         0.0000000000e+00
 16         0.0000000000e+00
 17         0.0000000000e+00
 18         0.0000000000e+00
 19         0.0000000000e+00
 20        -1.2159755820e-01
 21         0.0000000000e+00
 22         0.0000000000e+00
 23        -9.4130654936e-01
 24         0.0000000000e+00
 25         0.0000000000e+00
 26        -3.6404687581e-01
 27         0.0000000000e+00
 28         0.0000000000e+00
 29         0.0000000000e+00
 30        -1.4731833612e-01
 31         0.0000000000e+00
 32         0.0000000000e+00
 33         0.0000000000e+00
 34         0.0000000000e+00
 35         1.8873071495e+00
 36         0.0000000000e+00
 37         0.0000000000e+00
 38         0.0000000000e+00
 39         0.0000000000e+00
 40        -1.8988639999e-01
 41         0.0000000000e+00
 42         0.0000000000e+00
 43         0.0000000000e+00
 44        -3.0286557144e-15
 45         0.0000000000e+00
 46         0.0000000000e+00
 47         0.0000000000e+00
 48         0.0000000000e+00
 49         0.0000000000e+00
 50         9.4992751650e-02
 51         0.0000000000e+00
 52         0.0000000000e+00
 53         3.4274114664e-01
 54         0.0000000000e+00
 55         0.0000000000e+00
 56         1.4654663997e+00
 57         0.0000000000e+00
 58         0.0000000000e+00
 59         0.0000000000e+00
 60         1.6684001223e-03
 61         0.0000000000e+00
 62         0.0000000000e+00
 63         0.0000000000e+00
 64         0.0000000000e+00
 65         1.6014978034e+00
 66         0.0000000000e+00
 67         0.0000000000e+00
 68         0.0000000000e+00
 69         0.0000000000e+00
 70         5.7580881750e-02
 71         0.0000000000e+00
 72         0.0000000000e+00
 73         0.0000000000e+00
 74         1.3293101747e-16
 Sym= B1
 Ene=         2.0402121212e+00
 Spin= Alpha
 Occup=         0.0000000000e+00
  1         0.0000000000e+00
  2         0.0000000000e+00
  3         0.0000000000e+00
  4         2.6506004717e-02
  5         0.0000000000e+00
  6         0.0000000000e+00
  7        -6.4554187702e-01
  8         0.0000000000e+00
  9         0.0000000000e+00
 10         0.0000000000e+00
 11        -4.2061292742e-02
 12         0.0000000000e+00
 13         0.0000000000e+00
 14         0.0000000000e+00
 15         0.0000000000e+00
 16         0.0000000000e+00
 17         0.0000000000e+00
 18         0.0000000000e+00
 19        -1.2159755820e-01
 20         0.0000000000e+00
 21         0.0000000000e+00
 22        -9.4130654936e-01
 23         0.0000000000e+00
 24         0.0000000000e+00
 25        -3.6404687581e-01
 26         0.0000000000e+00
 27         0.0000000000e+00
 28         0.0000000000e+00
 29        -1.4731833612e-01
 30         0.0000000000e+00
 31         0.0000000000e+00
 32         0.0000000000e+00
 33         0.0000000000e+00
 34         1.8873071495e+00
 35         0.0000000000e+00
 36         0.0000000000e+00
 37         0.0000000000e+00
 38         0.0000000000e+00
 39        -1.8988639999e-01
 40         0.0000000000e+00
 41         0.0000000000e+00
 42         0.0000000000e+00
 43        -2.6791039490e-16
 44         0.0000000000e+00
 45         0.0000000000e+00
 46         0.0000000000e+00
 47         0.0000000000e+00
 48         0.0000000000e+00
 49         9.4992751650e-02
 50         0.0000000000e+00
 51         0.0000000000e+00
 52         3.4274114664e-01
 53         0.0000000000e+00
 54         0.0000000000e+00
 55         1.4654663997e+00
 56         0.0000000000e+00
 57         0.0000000000e+00
 58         0.0000000000e+00
 59         1.6684001223e-03
 60         0.0000000000e+00
 61         0.0000000000e+00
 62         0.0000000000e+00
 63         0.0000000000e+00
 64         1.6014978034e+00
 65         0.0000000000e+00
 66         0.0000000000e+00
 67         0.0000000000e+00
 68         0.0000000000e+00
 69         5.7580881750e-02
 70         0.0000000000e+00
 71         0.0000000000e+00
 72         0.0000000000e+00
 73         5.3930140019e-16
 74         0.0000000000e+00
 Sym= A1
 Ene=         2.1869364585e+00
 Spin= Alpha
 Occup=         0.0000000000e+00
  1         9.4584533076e-01
  2         1.9612935231e-01
  3        -1.9222029471e-02
  4         0.0000000000e+00
  5         0.0000000000e+00
  6         5.2139199897e-02
  7         0.0000000000e+00
  8         0.0000000000e+00
  9        -3.5820712902e-01
 10         9.2608550331e-02
 11         0.0000000000e+00
 12         0.0000000000e+00
 13         3.1448553664e-16
 14         0.0000000000e+00
 15         3.4882646532e-01
 16         7.0793019708e-01
 17         3.2576537232e-01
 18         3.2263746455e-01
 19         0.0000000000e+00
 20         0.0000000000e+00
 21         5.3580693591e-01
 22         0.0000000000e+00
 23         0.0000000000e+00
 24        -2.0344839584e+00
 25         0.0000000000e+00
 26         0.0000000000e+00
 27         4.5664693408e-01
 28         2.6817402194e-01
 29         0.0000000000e+00
 30         0.0000000000e+00
 31        -1.8427903319e-15
 32         0.0000000000e+00
 33        -9.9258605961e-01
 34         0.0000000000e+00
 35         0.0000000000e+00
 36         2.2675715159e-15
 37         0.0000000000e+00
 38         4.1036456742e-01
 39         0.0000000000e+00
 40         0.0000000000e+00
 41        -2.6003373094e-15
 42         0.0000000000e+00
 43         0.0000000000e+00
 44         0.0000000000e+00
 45         2.2973666287e-01
 46         5.5264154982e-01
 47         2.6437928588e-01
 48        -1.7183928426e+00
 49         0.0000000000e+00
 50         0.0000000000e+00
 51        -3.1404110782e-02
 52         0.0000000000e+00
 53         0.0000000000e+00
 54        -1.2379783229e-01
 55         0.0000000000e+00
 56         0.0000000000e+00
 57        -1.3933920743e+00
 58         5.4294077217e-03
 59         0.0000000000e+00
 60         0.0000000000e+00
 61         2.3223672002e-16
 62         0.0000000000e+00
 63        -4.7895948274e-01
 64         0.0000000000e+00
 65         0.0000000000e+00
 66        -3.1794873723e-15
 67         0.0000000000e+00
 68        -9.6055573100e-02
 69         0.0000000000e+00
 70         0.0000000000e+00
 71        -3.1684742540e-16
 72         0.0000000000e+00
 73         0.0000000000e+00
 74         0.0000000000e+00
 Sym= B1
 Ene=         2.5458711662e+00
 Spin= Alpha
 Occup=         0.0000000000e+00
  1         0.0000000000e+00
  2         0.0000000000e+00
  3         0.0000000000e+00
  4        -4.5484332214e-15
  5         0.0000000000e+00
  6         0.0000000000e+00
  7         7.5336792083e-15
  8         0.0000000000e+00
  9         0.0000000000e+00
 10         0.0000000000e+00
 11        -6.4407880903e-16
 12         0.0000000000e+00
 13         0.0000000000e+00
 14         0.0000000000e+00
 15         0.0000000000e+00
 16         0.0000000000e+00
 17         0.0000000000e+00
 18         0.0000000000e+00
 19         1.8184743380e-15
 20         0.0000000000e+00
 21         0.0000000000e+00
 22        -1.4755519529e-14
 23         0.0000000000e+00
 24         0.0000000000e+00
 25        -4.6993855498e-15
 26         0.0000000000e+00
 27         0.0000000000e+00
 28         0.0000000000e+00
 29        -5.0041984659e-15
 30         0.0000000000e+00
 31         0.0000000000e+00
 32         0.0000000000e+00
 33         0.0000000000e+00
 34         1.2480477597e-14
 35         0.0000000000e+00
 36         0.0000000000e+00
 37         0.0000000000e+00
 38         0.0000000000e+00
 39        -1.9251136704e-14
 40         0.0000000000e+00
 41         0.0000000000e+00
 42         0.0000000000e+00
 43         9.9438437358e-01
 44         0.0000000000e+00
 45         0.0000000000e+00
 46         0.0000000000e+00
 47         0.0000000000e+00
 48         0.0000000000e+00
 49         3.6243348768e-16
 50         0.0000000000e+00
 51         0.0000000000e+00
 52         1.1692816224e-14
 53         0.0000000000e+00
 54         0.0000000000e+00
 55         9.8009811011e-15
 56         0.0000000000e+00
 57         0.0000000000e+00
 58         0.0000000000e+00
 59         4.8684674177e-17
 60         0.0000000000e+00
 61         0.0000000000e+00
 62         0.0000000000e+00
 63         0.0000000000e+00
 64         1.0249607453e-14
 65         0.0000000000e+00
 66         0.0000000000e+00
 67         0.0000000000e+00
 68         0.0000000000e+00
 69         3.3175693396e-15
 70         0.0000000000e+00
 71         0.0000000000e+00
 72         0.0000000000e+00
 73         4.5675834288e-02
 74         0.0000000000e+00
 Sym= B2
 Ene=         2.5458711662e+00
 Spin= Alpha
 Occup=         0.0000000000e+00
  1         0.0000000000e+00
  2         0.0000000000e+00
  3         0.0000000000e+00
  4         0.0000000000e+00
  5        -2.4486307188e-15
  6         0.0000000000e+00
  7         0.0000000000e+00
  8         6.4660978718e-16
  9         0.0000000000e+00
 10         0.0000000000e+00
 11         0.0000000000e+00
 12         2.2670383534e-15
 13         0.0000000000e+00
 14         0.0000000000e+00
 15         0.0000000000e+00
 16         0.0000000000e+00
 17         0.0000000000e+00
 18         0.0000000000e+00
 19         0.0000000000e+00
 20         9.4661080328e-15
 21         0.0000000000e+00
 22         0.0000000000e+00
 23        -1.8924274344e-14
 24         0.0000000000e+00
 25         0.0000000000e+00
 26         2.4002686811e-15
 27         0.0000000000e+00
 28         0.0000000000e+00
 29         0.0000000000e+00
 30        -3.8460472277e-15
 31         0.0000000000e+00
 32         0.0000000000e+00
 33         0.0000000000e+00
 34         0.0000000000e+00
 35         1.0176994879e-14
 36         0.0000000000e+00
 37         0.0000000000e+00
 38         0.0000000000e+00
 39         0.0000000000e+00
 40        -3.6781879405e-15
 41         0.0000000000e+00
 42         0.0000000000e+00
 43         0.0000000000e+00
 44         9.9438437358e-01
 45         0.0000000000e+00
 46         0.0000000000e+00
 47         0.0000000000e+00
 48         0.0000000000e+00
 49         0.0000000000e+00
 50         1.5095549021e-15
 51         0.0000000000e+00
 52         0.0000000000e+00
 53         2.9658480522e-15
 54         0.0000000000e+00
 55         0.0000000000e+00
 56         8.2968992784e-15
 57         0.0000000000e+00
 58         0.0000000000e+00
 59         0.0000000000e+00
 60         5.6722652713e-17
 61         0.0000000000e+00
 62         0.0000000000e+00
 63         0.0000000000e+00
 64         0.0000000000e+00
 65         7.1277531194e-15
 66         0.0000000000e+00
 67         0.0000000000e+00
 68         0.0000000000e+00
 69         0.0000000000e+00
 70         1.9856234400e-15
 71         0.0000000000e+00
 72         0.0000000000e+00
 73         0.0000000000e+00
 74         4.5675834288e-02
 Sym= A2
 Ene=         2.6305568187e+00
 Spin= Alpha
 Occup=         0.0000000000e+00
  1         0.0000000000e+00
  2         0.0000000000e+00
  3         0.0000000000e+00
  4         0.0000000000e+00
  5         0.0000000000e+00
  6         0.0000000000e+00
  7         0.0000000000e+00
  8         0.0000000000e+00
  9         0.0000000000e+00
 10         0.0000000000e+00
 11         0.0000000000e+00
 12         0.0000000000e+00
 13         0.0000000000e+00
 14         4.5732786287e-01
 15         0.0000000000e+00
 16         0.0000000000e+00
 17         0.0000000000e+00
 18         0.0000000000e+00
 19         0.0000000000e+00
 20         0.0000000000e+00
 21         0.0000000000e+00
 22         0.0000000000e+00
 23         0.0000000000e+00
 24         0.0000000000e+00
 25         0.0000000000e+00
 26         0.0000000000e+00
 27         0.0000000000e+00
 28         0.0000000000e+00
 29         0.0000000000e+00
 30         0.0000000000e+00
 31         0.0000000000e+00
 32         2.8195990157e-02
 33         0.0000000000e+00
 34         0.0000000000e+00
 35         0.0000000000e+00
 36         0.0000000000e+00
 37        -2.8112683579e-01
 38         0.0000000000e+00
 39         0.0000000000e+00
 40         0.0000000000e+00
 41         0.0000000000e+00
 42         8.1371439560e-01
 43         0.0000000000e+00
 44         0.0000000000e+00
 45         0.0000000000e+00
 46         0.0000000000e+00
 47         0.0000000000e+00
 48         0.0000000000e+00
 49         0.0000000000e+00
 50         0.0000000000e+00
 51         0.0000000000e+00
 52         0.0000000000e+00
 53         0.0000000000e+00
 54         0.0000000000e+00
 55         0.0000000000e+00
 56         0.0000000000e+00
 57         0.0000000000e+00
 58         0.0000000000e+00
 59         0.0000000000e+00
 60         0.0000000000e+00
 61         0.0000000000e+00
 62        -8.9849773476e-03
 63         0.0000000000e+00
 64         0.0000000000e+00
 65         0.0000000000e+00
 66         0.0000000000e+00
 67         5.2755614074e-01
 68         0.0000000000e+00
 69         0.0000000000e+00
 70         0.0000000000e+00
 71         0.0000000000e+00
 72        -2.3449874695e-02
 73         0.0000000000e+00
 74         0.0000000000e+00
 Sym= A1
 Ene=         2.6305568187e+00
 Spin= Alpha
 Occup=         0.0000000000e+00
  1         1.6886018653e-14
  2        -5.6675654910e-14
  3        -5.7862669609e-15
  4         0.0000000000e+00
  5         0.0000000000e+00
  6         3.1149645411e-15
  7         0.0000000000e+00
  8         0.0000000000e+00
  9         2.4310573426e-14
 10        -7.1464694212e-16
 11         0.0000000000e+00
 12         0.0000000000e+00
 13         4.5732786287e-01
 14         0.0000000000e+00
 15         6.2282155287e-15
 16         1.5106649881e-14
 17         1.1400069418e-14
 18         5.1902873504e-15
 19         0.0000000000e+00
 20         0.0000000000e+00
 21        -1.5707751029e-14
 22         0.0000000000e+00
 23         0.0000000000e+00
 24         5.1531733711e-14
 25         0.0000000000e+00
 26         0.0000000000e+00
 27         1.9176797645e-14
 28        -1.1258471349e-15
 29         0.0000000000e+00
 30         0.0000000000e+00
 31         2.8195990157e-02
 32         0.0000000000e+00
 33        -5.2831338152e-15
 34         0.0000000000e+00
 35         0.0000000000e+00
 36        -2.8112683579e-01
 37         0.0000000000e+00
 38         2.3559211399e-16
 39         0.0000000000e+00
 40         0.0000000000e+00
 41         8.1371439560e-01
 42         0.0000000000e+00
 43         0.0000000000e+00
 44         0.0000000000e+00
 45         4.2411417210e-15
 46         9.8583318403e-15
 47         3.2433218638e-15
 48         2.1886043645e-14
 49         0.0000000000e+00
 50         0.0000000000e+00
 51        -2.0876858054e-15
 52         0.0000000000e+00
 53         0.0000000000e+00
 54         1.1505422935e-14
 55         0.0000000000e+00
 56         0.0000000000e+00
 57        -6.0789824047e-15
 58         3.5036987184e-16
 59         0.0000000000e+00
 60         0.0000000000e+00
 61        -8.9849773476e-03
 62         0.0000000000e+00
 63        -1.4505004760e-14
 64         0.0000000000e+00
 65         0.0000000000e+00
 66         5.2755614074e-01
 67         0.0000000000e+00
 68         1.8786632391e-15
 69         0.0000000000e+00
 70         0.0000000000e+00
 71        -2.3449874695e-02
 72         0.0000000000e+00
 73         0.0000000000e+00
 74         0.0000000000e+00
 Sym= B1
 Ene=         2.6809278477e+00
 Spin= Alpha
 Occup=         0.0000000000e+00
  1         0.0000000000e+00
  2         0.0000000000e+00
  3         0.0000000000e+00
  4         4.2044905903e-01
  5         0.0000000000e+00
  6         0.0000000000e+00
  7        -2.0646110689e-01
  8         0.0000000000e+00
  9         0.0000000000e+00
 10         0.0000000000e+00
 11        -1.8255901829e-01
 12         0.0000000000e+00
 13         0.0000000000e+00
 14         0.0000000000e+00
 15         0.0000000000e+00
 16         0.0000000000e+00
 17         0.0000000000e+00
 18         0.0000000000e+00
 19        -2.0446018670e-02
 20         0.0000000000e+00
 21         0.0000000000e+00
 22         1.9805628739e-01
 23         0.0000000000e+00
 24         0.0000000000e+00
 25         3.3218716617e-01
 26         0.0000000000e+00
 27         0.0000000000e+00
 28         0.0000000000e+00
 29         6.6324553228e-01
 30         0.0000000000e+00
 31         0.0000000000e+00
 32         0.0000000000e+00
 33         0.0000000000e+00
 34        -9.0462875047e-01
 35         0.0000000000e+00
 36         0.0000000000e+00
 37         0.0000000000e+00
 38         0.0000000000e+00
 39         6.5743735142e-01
 40         0.0000000000e+00
 41         0.0000000000e+00
 42         0.0000000000e+00
 43         1.4104134732e-14
 44         0.0000000000e+00
 45         0.0000000000e+00
 46         0.0000000000e+00
 47         0.0000000000e+00
 48         0.0000000000e+00
 49         6.5179056029e-02
 50         0.0000000000e+00
 51         0.0000000000e+00
 52        -4.3715205491e-01
 53         0.0000000000e+00
 54         0.0000000000e+00
 55        -4.7522529250e-01
 56         0.0000000000e+00
 57         0.0000000000e+00
 58         0.0000000000e+00
 59        -1.6931283116e-02
 60         0.0000000000e+00
 61         0.0000000000e+00
 62         0.0000000000e+00
 63         0.0000000000e+00
 64        -1.4008548932e-01
 65         0.0000000000e+00
 66         0.0000000000e+00
 67         0.0000000000e+00
 68         0.0000000000e+00
 69        -1.2783101244e-01
 70         0.0000000000e+00
 71         0.0000000000e+00
 72         0.0000000000e+00
 73         3.5008620856e-16
 74         0.0000000000e+00
 Sym= B2
 Ene=         2.6809278477e+00
 Spin= Alpha
 Occup=         0.0000000000e+00
  1         0.0000000000e+00
  2         0.0000000000e+00
  3         0.0000000000e+00
  4         0.0000000000e+00
  5         4.2044905903e-01
  6         0.0000000000e+00
  7         0.0000000000e+00
  8        -2.0646110689e-01
  9         0.0000000000e+00
 10         0.0000000000e+00
 11         0.0000000000e+00
 12        -1.8255901829e-01
 13         0.0000000000e+00
 14         0.0000000000e+00
 15         0.0000000000e+00
 16         0.0000000000e+00
 17         0.0000000000e+00
 18         0.0000000000e+00
 19         0.0000000000e+00
 20        -2.0446018670e-02
 21         0.0000000000e+00
 22         0.0000000000e+00
 23         1.9805628739e-01
 24         0.0000000000e+00
 25         0.0000000000e+00
 26         3.3218716617e-01
 27         0.0000000000e+00
 28         0.0000000000e+00
 29         0.0000000000e+00
 30         6.6324553228e-01
 31         0.0000000000e+00
 32         0.0000000000e+00
 33         0.0000000000e+00
 34         0.0000000000e+00
 35        -9.0462875047e-01
 36         0.0000000000e+00
 37         0.0000000000e+00
 38         0.0000000000e+00
 39         0.0000000000e+00
 40         6.5743735142e-01
 41         0.0000000000e+00
 42         0.0000000000e+00
 43         0.0000000000e+00
 44         5.7002143847e-15
 45         0.0000000000e+00
 46         0.0000000000e+00
 47         0.0000000000e+00
 48         0.0000000000e+00
 49         0.0000000000e+00
 50         6.5179056029e-02
 51         0.0000000000e+00
 52         0.0000000000e+00
 53        -4.3715205491e-01
 54         0.0000000000e+00
 55         0.0000000000e+00
 56        -4.7522529250e-01
 57         0.0000000000e+00
 58         0.0000000000e+00
 59         0.0000000000e+00
 60        -1.6931283116e-02
 61         0.0000000000e+00
 62         0.0000000000e+00
 63         0.0000000000e+00
 64         0.0000000000e+00
 65        -1.4008548932e-01
 66         0.0000000000e+00
 67         0.0000000000e+00
 68         0.0000000000e+00
 69         0.0000000000e+00
 70        -1.2783101244e-01
 71         0.0000000000e+00
 72         0.0000000000e+00
 73         0.0000000000e+00
 74         4.9050751093e-16
 Sym= A1
 Ene=         2.7336025098e+00
 Spin= Alpha
 Occup=         0.0000000000e+00
  1         6.8131880741e-01
  2        -3.0085551382e+00
  3        -1.5115629679e-02
  4         0.0000000000e+00
  5         0.0000000000e+00
  6         2.4230712718e-01
  7         0.0000000000e+00
  8         0.0000000000e+00
  9         1.3341826449e+00
 10        -7.1919531317e-02
 11         0.0000000000e+00
 12         0.0000000000e+00
 13        -6.3702430049e-15
 14         0.0000000000e+00
 15         3.5317696476e-01
 16         8.7257709816e-01
 17         6.0324864160e-01
 18         1.5967074115e-02
 19         0.0000000000e+00
 20         0.0000000000e+00
 21        -9.5418569400e-01
 22         0.0000000000e+00
 23         0.0000000000e+00
 24         3.3626242385e+00
 25         0.0000000000e+00
 26         0.0000000000e+00
 27         5.6526328234e-01
 28        -1.2818841584e-01
 29         0.0000000000e+00
 30         0.0000000000e+00
 31         2.5925323366e-14
 32         0.0000000000e+00
 33        -2.8825960395e-01
 34         0.0000000000e+00
 35         0.0000000000e+00
 36        -9.7169822442e-15
 37         0.0000000000e+00
 38         8.8668153750e-02
 39         0.0000000000e+00
 40         0.0000000000e+00
 41        -1.5922358317e-14
 42         0.0000000000e+00
 43         0.0000000000e+00
 44         0.0000000000e+00
 45         3.4895578914e-01
 46         8.3120504288e-01
 47         2.8645517321e-01
 48         9.4542746505e-01
 49         0.0000000000e+00
 50         0.0000000000e+00
 51        -1.5421051371e-01
 52         0.0000000000e+00
 53         0.0000000000e+00
 54         8.1121795907e-01
 55         0.0000000000e+00
 56         0.0000000000e+00
 57        -2.6201736429e-01
 58         2.1840148962e-02
 59         0.0000000000e+00
 60         0.0000000000e+00
 61         3.1638060121e-16
 62         0.0000000000e+00
 63        -7.4532741462e-01
 64         0.0000000000e+00
 65         0.0000000000e+00
 66        -8.6810716937e-15
 67         0.0000000000e+00
 68         1.1288622974e-01
 69         0.0000000000e+00
 70         0.0000000000e+00
 71         2.8757640069e-15
 72         0.0000000000e+00
 73         0.0000000000e+00
 74         0.0000000000e+00
 Sym= A1
 Ene=         2.8338443504e+00
 Spin= Alpha
 Occup=         0.0000000000e+00
  1        -1.1305812627e-14
  2         6.0939476605e-14
  3         4.6017073353e-15
  4         0.0000000000e+00
  5         0.0000000000e+00
  6        -4.5401841130e-15
  7         0.0000000000e+00
  8         0.0000000000e+00
  9        -3.1922308249e-14
 10         2.7184028171e-15
 11         0.0000000000e+00
 12         0.0000000000e+00
 13         7.8712555015e-02
 14         0.0000000000e+00
 15        -9.7861705358e-15
 16        -2.5366282455e-14
 17        -2.0032521209e-14
 18         2.9683455257e-15
 19         0.0000000000e+00
 20         0.0000000000e+00
 21         2.4493395607e-14
 22         0.0000000000e+00
 23         0.0000000000e+00
 24        -7.2367710108e-14
 25         0.0000000000e+00
 26         0.0000000000e+00
 27        -1.6858062775e-14
 28        -4.1668750328e-15
 29         0.0000000000e+00
 30         0.0000000000e+00
 31         1.1611769643e+00
 32         0.0000000000e+00
 33         1.1989650020e-14
 34         0.0000000000e+00
 35         0.0000000000e+00
 36        -6.1884499960e-01
 37         0.0000000000e+00
 38        -2.2992055963e-15
 39         0.0000000000e+00
 40         0.0000000000e+00
 41        -4.7603947500e-02
 42         0.0000000000e+00
 43         0.0000000000e+00
 44         0.0000000000e+00
 45        -7.4113091133e-15
 46        -1.6421499824e-14
 47        -6.7199226367e-15
 48        -2.1794539440e-14
 49         0.0000000000e+00
 50         0.0000000000e+00
 51         5.1459005570e-15
 52         0.0000000000e+00
 53         0.0000000000e+00
 54        -1.5078647709e-14
 55         0.0000000000e+00
 56         0.0000000000e+00
 57         1.1193285019e-14
 58        -5.7065877066e-16
 59         0.0000000000e+00
 60         0.0000000000e+00
 61         1.6482378757e-02
 62         0.0000000000e+00
 63         2.4697213188e-14
 64         0.0000000000e+00
 65         0.0000000000e+00
 66        -2.8745818102e-02
 67         0.0000000000e+00
 68        -1.8402880562e-15
 69         0.0000000000e+00
 70         0.0000000000e+00
 71         8.1763103562e-02
 72         0.0000000000e+00
 73         0.0000000000e+00
 74         0.0000000000e+00
 Sym= A2
 Ene=         2.8338443504e+00
 Spin= Alpha
 Occup=         0.0000000000e+00
  1         0.0000000000e+00
  2         0.0000000000e+00
  3         0.0000000000e+00
  4         0.0000000000e+00
  5         0.0000000000e+00
  6         0.0000000000e+00
  7         0.0000000000e+00
  8         0.0000000000e+00
  9         0.0000000000e+00
 10         0.0000000000e+00
 11         0.0000000000e+00
 12         0.0000000000e+00
 13         0.0000000000e+00
 14         7.8712555015e-02
 15         0.0000000000e+00
 16         0.0000000000e+00
 17         0.0000000000e+00
 18         0.0000000000e+00
 19         0.0000000000e+00
 20         0.0000000000e+00
 21         0.0000000000e+00
 22         0.0000000000e+00
 23         0.0000000000e+00
 24         0.0000000000e+00
 25         0.0000000000e+00
 26         0.0000000000e+00
 27         0.0000000000e+00
 28         0.0000000000e+00
 29         0.0000000000e+00
 30         0.0000000000e+00
 31         0.0000000000e+00
 32         1.1611769643e+00
 33         0.0000000000e+00
 34         0.0000000000e+00
 35         0.0000000000e+00
 36         0.0000000000e+00
 37        -6.1884499960e-01
 38         0.0000000000e+00
 39         0.0000000000e+00
 40         0.0000000000e+00
 41         0.0000000000e+00
 42        -4.7603947500e-02
 43         0.0000000000e+00
 44         0.0000000000e+00
 45         0.0000000000e+00
 46         0.0000000000e+00
 47         0.0000000000e+00
 48         0.0000000000e+00
 49         0.0000000000e+00
 50         0.0000000000e+00
 51         0.0000000000e+00
 52         0.0000000000e+00
 53         0.0000000000e+00
 54         0.0000000000e+00
 55         0.0000000000e+00
 56         0.0000000000e+00
 57         0.0000000000e+00
 58         0.0000000000e+00
 59         0.0000000000e+00
 60         0.0000000000e+00
 61         0.0000000000e+00
 62         1.6482378757e-02
 63         0.0000000000e+00
 64         0.0000000000e+00
 65         0.0000000000e+00
 66         0.0000000000e+00
 67        -2.8745818102e-02
 68         0.0000000000e+00
 69         0.0000000000e+00
 70         0.0000000000e+00
 71         0.0000000000e+00
 72         8.1763103562e-02
 73         0.0000000000e+00
 74         0.0000000000e+00
 Sym= A1
 Ene=         3.2215130736e+00
 Spin= Alpha
 Occup=         0.0000000000e+00
  1         2.9407414694e-01
  2        -5.3186454557e-01
  3         5.5402308236e-01
  4         0.0000000000e+00
  5         0.0000000000e+00
  6         6.5634138436e-01
  7         0.0000000000e+00
  8         0.0000000000e+00
  9        -8.2236985594e-01
 10         2.3009625973e-01
 11         0.0000000000e+00
 12         0.0000000000e+00
 13        -6.3627766754e-15
 14         0.0000000000e+00
 15        -2.0424807144e-01
 16        -5.8606025200e-01
 17        -6.9505981749e-01
 18         2.0847683015e-01
 19         0.0000000000e+00
 20         0.0000000000e+00
 21         4.8182881816e-01
 22         0.0000000000e+00
 23         0.0000000000e+00
 24        -2.9230157516e-01
 25         0.0000000000e+00
 26         0.0000000000e+00
 27        -3.0306769660e-01
 28        -9.3145166124e-01
 29         0.0000000000e+00
 30         0.0000000000e+00
 31        -4.1748985060e-15
 32         0.0000000000e+00
 33         1.1300944379e+00
 34         0.0000000000e+00
 35         0.0000000000e+00
 36         2.7945795935e-15
 37         0.0000000000e+00
 38        -2.2534165808e-01
 39         0.0000000000e+00
 40         0.0000000000e+00
 41         4.8084548676e-15
 42         0.0000000000e+00
 43         0.0000000000e+00
 44         0.0000000000e+00
 45        -1.2980488499e-01
 46        -2.4179142630e-01
 47        -2.1555711634e-01
 48        -1.4558452426e-02
 49         0.0000000000e+00
 50         0.0000000000e+00
 51         3.5026181871e-01
 52         0.0000000000e+00
 53         0.0000000000e+00
 54        -1.5735137544e-02
 55         0.0000000000e+00
 56         0.0000000000e+00
 57         5.9931943409e-01
 58        -7.4435159269e-02
 59         0.0000000000e+00
 60         0.0000000000e+00
 61        -1.6425071345e-15
 62         0.0000000000e+00
 63         7.4979308748e-01
 64         0.0000000000e+00
 65         0.0000000000e+00
 66         1.7569985554e-15
 67         0.0000000000e+00
 68         3.9097682701e-02
 69         0.0000000000e+00
 70         0.0000000000e+00
 71        -1.2116812596e-15
 72         0.0000000000e+00
 73         0.0000000000e+00
 74         0.0000000000e+00
 Sym= B2
 Ene=         3.3316027985e+00
 Spin= Alpha
 Occup=         0.0000000000e+00
  1         0.0000000000e+00
  2         0.0000000000e+00
  3         0.0000000000e+00
  4         0.0000000000e+00
  5         4.5236499462e-01
  6         0.0000000000e+00
  7         0.0000000000e+00
  8        -8.8280267042e-01
  9         0.0000000000e+00
 10         0.0000000000e+00
 11         0.0000000000e+00
 12         2.7003671581e-01
 13         0.0000000000e+00
 14         0.0000000000e+00
 15         0.0000000000e+00
 16         0.0000000000e+00
 17         0.0000000000e+00
 18         0.0000000000e+00
 19         0.0000000000e+00
 20        -1.3734136424e-01
 21         0.0000000000e+00
 22         0.0000000000e+00
 23         1.0175828409e+00
 24         0.0000000000e+00
 25         0.0000000000e+00
 26         2.1947627800e-01
 27         0.0000000000e+00
 28         0.0000000000e+00
 29         0.0000000000e+00
 30        -8.4524398430e-01
 31         0.0000000000e+00
 32         0.0000000000e+00
 33         0.0000000000e+00
 34         0.0000000000e+00
 35         2.3749866568e-01
 36         0.0000000000e+00
 37         0.0000000000e+00
 38         0.0000000000e+00
 39         0.0000000000e+00
 40         9.6892153725e-01
 41         0.0000000000e+00
 42         0.0000000000e+00
 43         0.0000000000e+00
 44        -1.2166892272e-16
 45         0.0000000000e+00
 46         0.0000000000e+00
 47         0.0000000000e+00
 48         0.0000000000e+00
 49         0.0000000000e+00
 50        -4.4192792704e-01
 51         0.0000000000e+00
 52         0.0000000000e+00
 53        -1.5543514878e-01
 54         0.0000000000e+00
 55         0.0000000000e+00
 56        -4.5521857120e-01
 57         0.0000000000e+00
 58         0.0000000000e+00
 59         0.0000000000e+00
 60         9.6417040156e-02
 61         0.0000000000e+00
 62         0.0000000000e+00
 63         0.0000000000e+00
 64         0.0000000000e+00
 65        -9.2166726569e-01
 66         0.0000000000e+00
 67         0.0000000000e+00
 68         0.0000000000e+00
 69         0.0000000000e+00
 70        -2.1996605347e-02
 71         0.0000000000e+00
 72         0.0000000000e+00
 73         0.0000000000e+00
 74         6.2507280733e-16
 Sym= B1
 Ene=         3.3316027985e+00
 Spin= Alpha
 Occup=         0.0000000000e+00
  1         0.0000000000e+00
  2         0.0000000000e+00
  3         0.0000000000e+00
  4         4.5236499462e-01
  5         0.0000000000e+00
  6         0.0000000000e+00
  7        -8.8280267042e-01
  8         0.0000000000e+00
  9         0.0000000000e+00
 10         0.0000000000e+00
 11         2.7003671581e-01
 12         0.0000000000e+00
 13         0.0000000000e+00
 14         0.0000000000e+00
 15         0.0000000000e+00
 16         0.0000000000e+00
 17         0.0000000000e+00
 18         0.0000000000e+00
 19        -1.3734136424e-01
 20         0.0000000000e+00
 21         0.0000000000e+00
 22         1.0175828409e+00
 23         0.0000000000e+00
 24         0.0000000000e+00
 25         2.1947627800e-01
 26         0.0000000000e+00
 27         0.0000000000e+00
 28         0.0000000000e+00
 29        -8.4524398430e-01
 30         0.0000000000e+00
 31         0.0000000000e+00
 32         0.0000000000e+00
 33         0.0000000000e+00
 34         2.3749866568e-01
 35         0.0000000000e+00
 36         0.0000000000e+00
 37         0.0000000000e+00
 38         0.0000000000e+00
 39         9.6892153725e-01
 40         0.0000000000e+00
 41         0.0000000000e+00
 42         0.0000000000e+00
 43         4.4000051049e-15
 44         0.0000000000e+00
 45         0.0000000000e+00
 46         0.0000000000e+00
 47         0.0000000000e+00
 48         0.0000000000e+00
 49        -4.4192792704e-01
 50         0.0000000000e+00
 51         0.0000000000e+00
 52        -1.5543514878e-01
 53         0.0000000000e+00
 54         0.0000000000e+00
 55        -4.5521857120e-01
 56         0.0000000000e+00
 57         0.0000000000e+00
 58         0.0000000000e+00
 59         9.6417040156e-02
 60         0.0000000000e+00
 61         0.0000000000e+00
 62         0.0000000000e+00
 63         0.0000000000e+00
 64        -9.2166726569e-01
 65         0.0000000000e+00
 66         0.0000000000e+00
 67         0.0000000000e+00
 68         0.0000000000e+00
 69        -2.1996605347e-02
 70         0.0000000000e+00
 71         0.0000000000e+00
 72         0.0000000000e+00
 73        -2.3915085824e-17
 74         0.0000000000e+00
 Sym= A2
 Ene=         3.5586493736e+00
 Spin= Alpha
 Occup=         0.0000000000e+00
  1         0.0000000000e+00
  2         0.0000000000e+00
  3         0.0000000000e+00
  4         0.0000000000e+00
  5         0.0000000000e+00
  6         0.0000000000e+00
  7         0.0000000000e+00
  8         0.0000000000e+00
  9         0.0000000000e+00
 10         0.0000000000e+00
 11         0.0000000000e+00
 12         0.0000000000e+00
 13         0.0000000000e+00
 14         9.5616792389e-01
 15         0.0000000000e+00
 16         0.0000000000e+00
 17         0.0000000000e+00
 18         0.0000000000e+00
 19         0.0000000000e+00
 20         0.0000000000e+00
 21         0.0000000000e+00
 22         0.0000000000e+00
 23         0.0000000000e+00
 24         0.0000000000e+00
 25         0.0000000000e+00
 26         0.0000000000e+00
 27         0.0000000000e+00
 28         0.0000000000e+00
 29         0.0000000000e+00
 30         0.0000000000e+00
 31         0.0000000000e+00
 32        -1.3675498027e-01
 33         0.0000000000e+00
 34         0.0000000000e+00
 35         0.0000000000e+00
 36         0.0000000000e+00
 37        -4.4233892108e-02
 38         0.0000000000e+00
 39         0.0000000000e+00
 40         0.0000000000e+00
 41         0.0000000000e+00
 42        -7.3278621394e-01
 43         0.0000000000e+00
 44         0.0000000000e+00
 45         0.0000000000e+00
 46         0.0000000000e+00
 47         0.0000000000e+00
 48         0.0000000000e+00
 49         0.0000000000e+00
 50         0.0000000000e+00
 51         0.0000000000e+00
 52         0.0000000000e+00
 53         0.0000000000e+00
 54         0.0000000000e+00
 55         0.0000000000e+00
 56         0.0000000000e+00
 57         0.0000000000e+00
 58         0.0000000000e+00
 59         0.0000000000e+00
 60         0.0000000000e+00
 61         0.0000000000e+00
 62         1.9234158160e-02
 63         0.0000000000e+00
 64         0.0000000000e+00
 65         0.0000000000e+00
 66         0.0000000000e+00
 67        -2.6848935328e-01
 68         0.0000000000e+00
 69         0.0000000000e+00
 70         0.0000000000e+00
 71         0.0000000000e+00
 72         1.0736925514e-01
 73         0.0000000000e+00
 74         0.0000000000e+00
 Sym= A1
 Ene=         3.5586493736e+00
 Spin= Alpha
 Occup=         0.0000000000e+00
  1        -4.0645956458e-15
  2        -3.2213233123e-14
  3        -2.1821981872e-15
  4         0.0000000000e+00
  5         0.0000000000e+00
  6         4.5723071772e-15
  7         0.0000000000e+00
  8         0.0000000000e+00
  9         1.5774546491e-14
 10        -6.8785752077e-15
 11         0.0000000000e+00
 12         0.0000000000e+00
 13         9.5616792389e-01
 14         0.0000000000e+00
 15         1.0295577226e-15
 16         1.6906138937e-15
 17        -2.7359922289e-15
 18         1.0491425983e-14
 19         0.0000000000e+00
 20         0.0000000000e+00
 21         3.9531686243e-15
 22         0.0000000000e+00
 23         0.0000000000e+00
 24         4.0409734986e-14
 25         0.0000000000e+00
 26         0.0000000000e+00
 27         9.1238764116e-16
 28        -1.0624274658e-14
 29         0.0000000000e+00
 30         0.0000000000e+00
 31        -1.3675498027e-01
 32         0.0000000000e+00
 33         1.0647307321e-14
 34         0.0000000000e+00
 35         0.0000000000e+00
 36        -4.4233892108e-02
 37         0.0000000000e+00
 38         6.9977417751e-15
 39         0.0000000000e+00
 40         0.0000000000e+00
 41        -7.3278621394e-01
 42         0.0000000000e+00
 43         0.0000000000e+00
 44         0.0000000000e+00
 45         3.2021031882e-15
 46         1.0061238717e-14
 47         4.2327536411e-15
 48         9.0381361870e-15
 49         0.0000000000e+00
 50         0.0000000000e+00
 51         1.8284832677e-15
 52         0.0000000000e+00
 53         0.0000000000e+00
 54         1.4532351797e-14
 55         0.0000000000e+00
 56         0.0000000000e+00
 57         5.8552519200e-15
 58        -7.8880781953e-16
 59         0.0000000000e+00
 60         0.0000000000e+00
 61         1.9234158160e-02
 62         0.0000000000e+00
 63         8.9154873886e-15
 64         0.0000000000e+00
 65         0.0000000000e+00
 66        -2.6848935328e-01
 67         0.0000000000e+00
 68         7.7072645106e-16
 69         0.0000000000e+00
 70         0.0000000000e+00
 71         1.0736925514e-01
 72         0.0000000000e+00
 73         0.0000000000e+00
 74         0.0000000000e+00
 Sym= B2
 Ene=         3.7078015539e+00
 Spin= Alpha
 Occup=         0.0000000000e+00
  1         0.0000000000e+00
  2         0.0000000000e+00
  3         0.0000000000e+00
  4         0.0000000000e+00
  5         7.9317863255e-01
  6         0.0000000000e+00
  7         0.0000000000e+00
  8        -7.9362658748e-01
  9         0.0000000000e+00
 10         0.0000000000e+00
 11         0.0000000000e+00
 12         6.1517184566e-01
 13         0.0000000000e+00
 14         0.0000000000e+00
 15         0.0000000000e+00
 16         0.0000000000e+00
 17         0.0000000000e+00
 18         0.0000000000e+00
 19         0.0000000000e+00
 20         2.1140328084e-02
 21         0.0000000000e+00
 22         0.0000000000e+00
 23         3.5853337100e-01
 24         0.0000000000e+00
 25         0.0000000000e+00
 26        -5.8584904339e-02
 27         0.0000000000e+00
 28         0.0000000000e+00
 29         0.0000000000e+00
 30         1.4406192891e-02
 31         0.0000000000e+00
 32         0.0000000000e+00
 33         0.0000000000e+00
 34         0.0000000000e+00
 35         2.9934035767e-01
 36         0.0000000000e+00
 37         0.0000000000e+00
 38         0.0000000000e+00
 39         0.0000000000e+00
 40        -2.3738543245e-02
 41         0.0000000000e+00
 42         0.0000000000e+00
 43         0.0000000000e+00
 44        -1.5282418548e-15
 45         0.0000000000e+00
 46         0.0000000000e+00
 47         0.0000000000e+00
 48         0.0000000000e+00
 49         0.0000000000e+00
 50         7.6015180035e-01
 51         0.0000000000e+00
 52         0.0000000000e+00
 53        -8.4082253121e-01
 54         0.0000000000e+00
 55         0.0000000000e+00
 56         4.2650361539e-01
 57         0.0000000000e+00
 58         0.0000000000e+00
 59         0.0000000000e+00
 60        -1.1148954694e-02
 61         0.0000000000e+00
 62         0.0000000000e+00
 63         0.0000000000e+00
 64         0.0000000000e+00
 65        -2.2190018639e-02
 66         0.0000000000e+00
 67         0.0000000000e+00
 68         0.0000000000e+00
 69         0.0000000000e+00
 70         4.8942565216e-02
 71         0.0000000000e+00
 72         0.0000000000e+00
 73         0.0000000000e+00
 74         5.5506479905e-16
 Sym= B1
 Ene=         3.7078015539e+00
 Spin= Alpha
 Occup=         0.0000000000e+00
  1         0.0000000000e+00
  2         0.0000000000e+00
  3         0.0000000000e+00
  4         7.9317863255e-01
  5         0.0000000000e+00
  6         0.0000000000e+00
  7        -7.9362658748e-01
  8         0.0000000000e+00
  9         0.0000000000e+00
 10         0.0000000000e+00
 11         6.1517184566e-01
 12         0.0000000000e+00
 13         0.0000000000e+00
 14         0.0000000000e+00
 15         0.0000000000e+00
 16         0.0000000000e+00
 17         0.0000000000e+00
 18         0.0000000000e+00
 19         2.1140328084e-02
 20         0.0000000000e+00
 21         0.0000000000e+00
 22         3.5853337100e-01
 23         0.0000000000e+00
 24         0.0000000000e+00
 25        -5.8584904339e-02
 26         0.0000000000e+00
 27         0.0000000000e+00
 28         0.0000000000e+00
 29         1.4406192891e-02
 30         0.0000000000e+00
 31         0.0000000000e+00
 32         0.0000000000e+00
 33         0.0000000000e+00
 34         2.9934035766e-01
 35         0.0000000000e+00
 36         0.0000000000e+00
 37         0.0000000000e+00
 38         0.0000000000e+00
 39        -2.3738543245e-02
 40         0.0000000000e+00
 41         0.0000000000e+00
 42         0.0000000000e+00
 43        -1.4008539044e-15
 44         0.0000000000e+00
 45         0.0000000000e+00
 46         0.0000000000e+00
 47         0.0000000000e+00
 48         0.0000000000e+00
 49         7.6015180035e-01
 50         0.0000000000e+00
 51         0.0000000000e+00
 52        -8.4082253121e-01
 53         0.0000000000e+00
 54         0.0000000000e+00
 55         4.2650361539e-01
 56         0.0000000000e+00
 57         0.0000000000e+00
 58         0.0000000000e+00
 59        -1.1148954694e-02
 60         0.0000000000e+00
 61         0.0000000000e+00
 62         0.0000000000e+00
 63         0.0000000000e+00
 64        -2.2190018640e-02
 65         0.0000000000e+00
 66         0.0000000000e+00
 67         0.0000000000e+00
 68         0.0000000000e+00
 69         4.8942565216e-02
 70         0.0000000000e+00
 71         0.0000000000e+00
 72         0.0000000000e+00
 73         1.8860997010e-15
 74         0.0000000000e+00
 Sym= A1
 Ene=         4.1431447900e+00
 Spin= Alpha
 Occup=         0.0000000000e+00
  1         2.6548464419e-02
  2         4.3734188488e+00
  3         8.5808823458e-01
  4         0.0000000000e+00
  5         0.0000000000e+00
  6         3.4773927020e-01
  7         0.0000000000e+00
  8         0.0000000000e+00
  9        -2.9075192318e+00
 10         1.0667197862e+00
 11         0.0000000000e+00
 12         0.0000000000e+00
 13         6.2968389894e-15
 14         0.0000000000e+00
 15        -2.8488593623e-01
 16        -6.0136967884e-01
 17        -2.6845722510e-01
 18        -1.1776159593e+00
 19         0.0000000000e+00
 20         0.0000000000e+00
 21        -1.1133965068e-01
 22         0.0000000000e+00
 23         0.0000000000e+00
 24        -4.9913957265e+00
 25         0.0000000000e+00
 26         0.0000000000e+00
 27        -9.3605602483e-01
 28         6.2745680383e-01
 29         0.0000000000e+00
 30         0.0000000000e+00
 31         4.5339707260e-16
 32         0.0000000000e+00
 33        -5.1294652701e-01
 34         0.0000000000e+00
 35         0.0000000000e+00
 36        -1.3889947319e-15
 37         0.0000000000e+00
 38        -8.8070418715e-01
 39         0.0000000000e+00
 40         0.0000000000e+00
 41        -5.4255764637e-15
 42         0.0000000000e+00
 43         0.0000000000e+00
 44         0.0000000000e+00
 45        -3.5040860891e-01
 46        -9.8929505871e-01
 47        -5.1519293638e-01
 48        -1.9506015570e+00
 49         0.0000000000e+00
 50         0.0000000000e+00
 51        -2.0375803996e-01
 52         0.0000000000e+00
 53         0.0000000000e+00
 54        -1.3870095532e+00
 55         0.0000000000e+00
 56         0.0000000000e+00
 57        -5.6527456360e-01
 58         9.5927015688e-02
 59         0.0000000000e+00
 60         0.0000000000e+00
 61         1.2600209208e-15
 62         0.0000000000e+00
 63        -5.1062041122e-01
 64         0.0000000000e+00
 65         0.0000000000e+00
 66        -2.0617440551e-15
 67         0.0000000000e+00
 68        -9.0033636695e-02
 69         0.0000000000e+00
 70         0.0000000000e+00
 71         2.5291701145e-15
 72         0.0000000000e+00
 73         0.0000000000e+00
 74         0.0000000000e+00
 Sym= B2
 Ene=         4.3432611939e+00
 Spin= Alpha
 Occup=         0.0000000000e+00
  1         0.0000000000e+00
  2         0.0000000000e+00
  3         0.0000000000e+00
  4         0.0000000000e+00
  5         3.2372344485e-01
  6         0.0000000000e+00
  7         0.0000000000e+00
  8        -9.4081951420e-01
  9         0.0000000000e+00
 10         0.0000000000e+00
 11         0.0000000000e+00
 12         7.6979195515e-01
 13         0.0000000000e+00
 14         0.0000000000e+00
 15         0.0000000000e+00
 16         0.0000000000e+00
 17         0.0000000000e+00
 18         0.0000000000e+00
 19         0.0000000000e+00
 20         1.1028357182e-01
 21         0.0000000000e+00
 22         0.0000000000e+00
 23        -2.0699319431e-01
 24         0.0000000000e+00
 25         0.0000000000e+00
 26         1.0985276779e-01
 27         0.0000000000e+00
 28         0.0000000000e+00
 29         0.0000000000e+00
 30         4.9512774145e-01
 31         0.0000000000e+00
 32         0.0000000000e+00
 33         0.0000000000e+00
 34         0.0000000000e+00
 35         1.0741325812e+00
 36         0.0000000000e+00
 37         0.0000000000e+00
 38         0.0000000000e+00
 39         0.0000000000e+00
 40        -1.6726658915e-01
 41         0.0000000000e+00
 42         0.0000000000e+00
 43         0.0000000000e+00
 44         4.7487701769e-16
 45         0.0000000000e+00
 46         0.0000000000e+00
 47         0.0000000000e+00
 48         0.0000000000e+00
 49         0.0000000000e+00
 50        -8.1007274285e-01
 51         0.0000000000e+00
 52         0.0000000000e+00
 53         1.4227392258e+00
 54         0.0000000000e+00
 55         0.0000000000e+00
 56         4.7142065688e-02
 57         0.0000000000e+00
 58         0.0000000000e+00
 59         0.0000000000e+00
 60        -1.9983573545e-02
 61         0.0000000000e+00
 62         0.0000000000e+00
 63         0.0000000000e+00
 64         0.0000000000e+00
 65         6.3570815554e-01
 66         0.0000000000e+00
 67         0.0000000000e+00
 68         0.0000000000e+00
 69         0.0000000000e+00
 70        -2.5517269709e-01
 71         0.0000000000e+00
 72         0.0000000000e+00
 73         0.0000000000e+00
 74        -3.1534768403e-15
 Sym= B1
 Ene=         4.3432611939e+00
 Spin= Alpha
 Occup=         0.0000000000e+00
  1         0.0000000000e+00
  2         0.0000000000e+00
  3         0.0000000000e+00
  4         3.2372344485e-01
  5         0.0000000000e+00
  6         0.0000000000e+00
  7        -9.4081951420e-01
  8         0.0000000000e+00
  9         0.0000000000e+00
 10         0.0000000000e+00
 11         7.6979195515e-01
 12         0.0000000000e+00
 13         0.0000000000e+00
 14         0.0000000000e+00
 15         0.0000000000e+00
 16         0.0000000000e+00
 17         0.0000000000e+00
 18         0.0000000000e+00
 19         1.1028357182e-01
 20         0.0000000000e+00
 21         0.0000000000e+00
 22        -2.0699319431e-01
 23         0.0000000000e+00
 24         0.0000000000e+00
 25         1.0985276779e-01
 26         0.0000000000e+00
 27         0.0000000000e+00
 28         0.0000000000e+00
 29         4.9512774145e-01
 30         0.0000000000e+00
 31         0.0000000000e+00
 32         0.0000000000e+00
 33         0.0000000000e+00
 34         1.0741325812e+00
 35         0.0000000000e+00
 36         0.0000000000e+00
 37         0.0000000000e+00
 38         0.0000000000e+00
 39        -1.6726658915e-01
 40         0.0000000000e+00
 41         0.0000000000e+00
 42         0.0000000000e+00
 43         2.8998234306e-18
 44         0.0000000000e+00
 45         0.0000000000e+00
 46         0.0000000000e+00
 47         0.0000000000e+00
 48         0.0000000000e+00
 49        -8.1007274285e-01
 50         0.0000000000e+00
 51         0.0000000000e+00
 52         1.4227392258e+00
 53         0.0000000000e+00
 54         0.0000000000e+00
 55         4.7142065688e-02
 56         0.0000000000e+00
 57         0.0000000000e+00
 58         0.0000000000e+00
 59        -1.9983573545e-02
 60         0.0000000000e+00
 61         0.0000000000e+00
 62         0.0000000000e+00
 63         0.0000000000e+00
 64         6.3570815554e-01
 65         0.0000000000e+00
 66         0.0000000000e+00
 67         0.0000000000e+00
 68         0.0000000000e+00
 69        -2.5517269709e-01
 70         0.0000000000e+00
 71         0.0000000000e+00
 72         0.0000000000e+00
 73        -5.8022173391e-15
 74         0.0000000000e+00
 Sym= A1
 Ene=         4.5692159505e+00
 Spin= Alpha
 Occup=         0.0000000000e+00
  1         4.4736264166e-01
  2         4.0937793139e+00
  3         5.0156172805e-01
  4         0.0000000000e+00
  5         0.0000000000e+00
  6        -1.8813773891e-01
  7         0.0000000000e+00
  8         0.0000000000e+00
  9        -1.7593352149e+00
 10        -2.3361879428e-01
 11         0.0000000000e+00
 12         0.0000000000e+00
 13         2.4384005616e-16
 14         0.0000000000e+00
 15        -1.9399723985e-01
 16         3.0684218656e-01
 17         1.4733853994e+00
 18        -4.2241121375e-01
 19         0.0000000000e+00
 20         0.0000000000e+00
 21         2.4780930772e-01
 22         0.0000000000e+00
 23         0.0000000000e+00
 24        -5.9546194852e+00
 25         0.0000000000e+00
 26         0.0000000000e+00
 27        -1.0797415400e+00
 28         8.9497187172e-01
 29         0.0000000000e+00
 30         0.0000000000e+00
 31         2.0533239417e-16
 32         0.0000000000e+00
 33        -1.0516985327e+00
 34         0.0000000000e+00
 35         0.0000000000e+00
 36        -3.1646853938e-16
 37         0.0000000000e+00
 38        -7.2586140617e-01
 39         0.0000000000e+00
 40         0.0000000000e+00
 41        -9.2413620983e-16
 42         0.0000000000e+00
 43         0.0000000000e+00
 44         0.0000000000e+00
 45        -1.3880922904e-01
 46        -5.5844650733e-01
 47        -3.5826649608e-01
 48        -3.9396495971e+00
 49         0.0000000000e+00
 50         0.0000000000e+00
 51         8.9848572094e-01
 52         0.0000000000e+00
 53         0.0000000000e+00
 54        -3.1387993934e+00
 55         0.0000000000e+00
 56         0.0000000000e+00
 57        -1.0543456227e+00
 58         1.0847732381e-01
 59         0.0000000000e+00
 60         0.0000000000e+00
 61         2.2017652838e-15
 62         0.0000000000e+00
 63        -1.2250968326e+00
 64         0.0000000000e+00
 65         0.0000000000e+00
 66        -7.4063223465e-16
 67         0.0000000000e+00
 68         2.0428257967e-01
 69         0.0000000000e+00
 70         0.0000000000e+00
 71         3.1182829700e-15
 72         0.0000000000e+00
 73         0.0000000000e+00
 74         0.0000000000e+00
 Sym= A1
 Ene=         5.0244159660e+00
 Spin= Alpha
 Occup=         0.0000000000e+00
  1         1.1329738771e-01
  2         3.2817954839e+00
  3         2.7212595000e-01
  4         0.0000000000e+00
  5         0.0000000000e+00
  6        -1.0514140224e+00
  7         0.0000000000e+00
  8         0.0000000000e+00
  9        -1.6878899220e+00
 10         1.1439575804e+00
 11         0.0000000000e+00
 12         0.0000000000e+00
 13         1.3533650671e-15
 14         0.0000000000e+00
 15         4.8342749443e-01
 16         4.6722038495e-01
 17        -7.9122931769e-01
 18         8.1309205256e-01
 19         0.0000000000e+00
 20         0.0000000000e+00
 21        -4.1815485609e-01
 22         0.0000000000e+00
 23         0.0000000000e+00
 24        -4.6321722694e+00
 25         0.0000000000e+00
 26         0.0000000000e+00
 27        -1.1848101297e+00
 28        -6.7761327124e-01
 29         0.0000000000e+00
 30         0.0000000000e+00
 31        -1.0650974002e-15
 32         0.0000000000e+00
 33         5.1362059671e-01
 34         0.0000000000e+00
 35         0.0000000000e+00
 36         5.5277571688e-16
 37         0.0000000000e+00
 38        -6.0385320247e-01
 39         0.0000000000e+00
 40         0.0000000000e+00
 41        -1.5464558962e-15
 42         0.0000000000e+00
 43         0.0000000000e+00
 44         0.0000000000e+00
 45         1.0755437177e-03
 46        -2.2906132050e-01
 47        -4.7248558146e-01
 48        -4.1174546404e+00
 49         0.0000000000e+00
 50         0.0000000000e+00
 51         6.4037851845e-01
 52         0.0000000000e+00
 53         0.0000000000e+00
 54        -1.8877401822e+00
 55         0.0000000000e+00
 56         0.0000000000e+00
 57        -8.7109711863e-01
 58        -1.9597557910e-01
 59         0.0000000000e+00
 60         0.0000000000e+00
 61        -2.3085986253e-15
 62         0.0000000000e+00
 63        -2.8953691721e-01
 64         0.0000000000e+00
 65         0.0000000000e+00
 66         1.0303554383e-16
 67         0.0000000000e+00
 68        -5.4205140951e-02
 69         0.0000000000e+00
 70         0.0000000000e+00
 71         9.0570366189e-16
 72         0.0000000000e+00
 73         0.0000000000e+00
 74         0.0000000000e+00
 Sym= B2
 Ene=         5.0724528390e+00
 Spin= Alpha
 Occup=         0.0000000000e+00
  1         0.0000000000e+00
  2         0.0000000000e+00
  3         0.0000000000e+00
  4         0.0000000000e+00
  5         8.5760883783e-01
  6         0.0000000000e+00
  7         0.0000000000e+00
  8         3.3950615876e-01
  9         0.0000000000e+00
 10         0.0000000000e+00
 11         0.0000000000e+00
 12        -1.1837067863e+00
 13         0.0000000000e+00
 14         0.0000000000e+00
 15         0.0000000000e+00
 16         0.0000000000e+00
 17         0.0000000000e+00
 18         0.0000000000e+00
 19         0.0000000000e+00
 20         2.2173867466e-01
 21         0.0000000000e+00
 22         0.0000000000e+00
 23        -1.6039195349e+00
 24         0.0000000000e+00
 25         0.0000000000e+00
 26         5.6119208255e-02
 27         0.0000000000e+00
 28         0.0000000000e+00
 29         0.0000000000e+00
 30        -3.8874165073e-01
 31         0.0000000000e+00
 32         0.0000000000e+00
 33         0.0000000000e+00
 34         0.0000000000e+00
 35         3.8785653741e-01
 36         0.0000000000e+00
 37         0.0000000000e+00
 38         0.0000000000e+00
 39         0.0000000000e+00
 40        -1.5867858626e+00
 41         0.0000000000e+00
 42         0.0000000000e+00
 43         0.0000000000e+00
 44         4.4318201027e-15
 45         0.0000000000e+00
 46         0.0000000000e+00
 47         0.0000000000e+00
 48         0.0000000000e+00
 49         0.0000000000e+00
 50        -2.1585600597e-01
 51         0.0000000000e+00
 52         0.0000000000e+00
 53         1.1838524842e+00
 54         0.0000000000e+00
 55         0.0000000000e+00
 56         2.5778609979e-01
 57         0.0000000000e+00
 58         0.0000000000e+00
 59         0.0000000000e+00
 60        -2.4394435961e-01
 61         0.0000000000e+00
 62         0.0000000000e+00
 63         0.0000000000e+00
 64         0.0000000000e+00
 65         9.5526839812e-01
 66         0.0000000000e+00
 67         0.0000000000e+00
 68         0.0000000000e+00
 69         0.0000000000e+00
 70        -1.2195404342e-01
 71         0.0000000000e+00
 72         0.0000000000e+00
 73         0.0000000000e+00
 74        -2.1015277240e-14
 Sym= B1
 Ene=         5.0724528390e+00
 Spin= Alpha
 Occup=         0.0000000000e+00
  1         0.0000000000e+00
  2         0.0000000000e+00
  3         0.0000000000e+00
  4         8.5760883783e-01
  5         0.0000000000e+00
  6         0.0000000000e+00
  7         3.3950615876e-01
  8         0.0000000000e+00
  9         0.0000000000e+00
 10         0.0000000000e+00
 11        -1.1837067863e+00
 12         0.0000000000e+00
 13         0.0000000000e+00
 14         0.0000000000e+00
 15         0.0000000000e+00
 16         0.0000000000e+00
 17         0.0000000000e+00
 18         0.0000000000e+00
 19         2.2173867466e-01
 20         0.0000000000e+00
 21         0.0000000000e+00
 22        -1.6039195349e+00
 23         0.0000000000e+00
 24         0.0000000000e+00
 25         5.6119208255e-02
 26         0.0000000000e+00
 27         0.0000000000e+00
 28         0.0000000000e+00
 29        -3.8874165073e-01
 30         0.0000000000e+00
 31         0.0000000000e+00
 32         0.0000000000e+00
 33         0.0000000000e+00
 34         3.8785653741e-01
 35         0.0000000000e+00
 36         0.0000000000e+00
 37         0.0000000000e+00
 38         0.0000000000e+00
 39        -1.5867858626e+00
 40         0.0000000000e+00
 41         0.0000000000e+00
 42         0.0000000000e+00
 43        -7.6398138794e-16
 44         0.0000000000e+00
 45         0.0000000000e+00
 46         0.0000000000e+00
 47         0.0000000000e+00
 48         0.0000000000e+00
 49        -2.1585600597e-01
 50         0.0000000000e+00
 51         0.0000000000e+00
 52         1.1838524842e+00
 53         0.0000000000e+00
 54         0.0000000000e+00
 55         2.5778609979e-01
 56         0.0000000000e+00
 57         0.0000000000e+00
 58         0.0000000000e+00
 59        -2.4394435961e-01
 60         0.0000000000e+00
 61         0.0000000000e+00
 62         0.0000000000e+00
 63         0.0000000000e+00
 64         9.5526839812e-01
 65         0.0000000000e+00
 66         0.0000000000e+00
 67         0.0000000000e+00
 68         0.0000000000e+00
 69        -1.2195404342e-01
 70         0.0000000000e+00
 71         0.0000000000e+00
 72         0.0000000000e+00
 73        -1.1451151415e-14
 74         0.0000000000e+00
 Sym= B2
 Ene=         5.1995171393e+00
 Spin= Alpha
 Occup=         0.0000000000e+00
  1         0.0000000000e+00
  2         0.0000000000e+00
  3         0.0000000000e+00
  4         0.0000000000e+00
  5        -1.8466592326e-14
  6         0.0000000000e+00
  7         0.0000000000e+00
  8        -4.7015734979e-15
  9         0.0000000000e+00
 10         0.0000000000e+00
 11         0.0000000000e+00
 12         2.2969123991e-14
 13         0.0000000000e+00
 14         0.0000000000e+00
 15         0.0000000000e+00
 16         0.0000000000e+00
 17         0.0000000000e+00
 18         0.0000000000e+00
 19         0.0000000000e+00
 20        -4.7901681211e-15
 21         0.0000000000e+00
 22         0.0000000000e+00
 23         3.6588276601e-14
 24         0.0000000000e+00
 25         0.0000000000e+00
 26        -1.1975614502e-15
 27         0.0000000000e+00
 28         0.0000000000e+00
 29         0.0000000000e+00
 30         5.0735189990e-15
 31         0.0000000000e+00
 32         0.0000000000e+00
 33         0.0000000000e+00
 34         0.0000000000e+00
 35        -1.2878983065e-14
 36         0.0000000000e+00
 37         0.0000000000e+00
 38         0.0000000000e+00
 39         0.0000000000e+00
 40         3.5587880048e-14
 41         0.0000000000e+00
 42         0.0000000000e+00
 43         0.0000000000e+00
 44         1.4617545374e-01
 45         0.0000000000e+00
 46         0.0000000000e+00
 47         0.0000000000e+00
 48         0.0000000000e+00
 49         0.0000000000e+00
 50         7.7926333070e-15
 51         0.0000000000e+00
 52         0.0000000000e+00
 53        -3.2575466607e-14
 54         0.0000000000e+00
 55         0.0000000000e+00
 56        -6.4276052775e-15
 57         0.0000000000e+00
 58         0.0000000000e+00
 59         0.0000000000e+00
 60         6.8838509138e-15
 61         0.0000000000e+00
 62         0.0000000000e+00
 63         0.0000000000e+00
 64         0.0000000000e+00
 65        -2.4954185355e-14
 66         0.0000000000e+00
 67         0.0000000000e+00
 68         0.0000000000e+00
 69         0.0000000000e+00
 70         1.9400675780e-15
 71         0.0000000000e+00
 72         0.0000000000e+00
 73         0.0000000000e+00
 74        -1.0040325014e+00
 Sym= B1
 Ene=         5.1995171393e+00
 Spin= Alpha
 Occup=         0.0000000000e+00
  1         0.0000000000e+00
  2         0.0000000000e+00
  3         0.0000000000e+00
  4        -1.1349294134e-14
  5         0.0000000000e+00
  6         0.0000000000e+00
  7        -1.4053043441e-16
  8         0.0000000000e+00
  9         0.0000000000e+00
 10         0.0000000000e+00
 11         1.1076794868e-14
 12         0.0000000000e+00
 13         0.0000000000e+00
 14         0.0000000000e+00
 15         0.0000000000e+00
 16         0.0000000000e+00
 17         0.0000000000e+00
 18         0.0000000000e+00
 19        -2.5410771885e-15
 20         0.0000000000e+00
 21         0.0000000000e+00
 22         2.3885239405e-14
 23         0.0000000000e+00
 24         0.0000000000e+00
 25        -1.6023279102e-15
 26         0.0000000000e+00
 27         0.0000000000e+00
 28         0.0000000000e+00
 29        -1.0363754951e-15
 30         0.0000000000e+00
 31         0.0000000000e+00
 32         0.0000000000e+00
 33         0.0000000000e+00
 34        -1.1447920731e-14
 35         0.0000000000e+00
 36         0.0000000000e+00
 37         0.0000000000e+00
 38         0.0000000000e+00
 39         2.2232157733e-14
 40         0.0000000000e+00
 41         0.0000000000e+00
 42         0.0000000000e+00
 43         1.4617545374e-01
 44         0.0000000000e+00
 45         0.0000000000e+00
 46         0.0000000000e+00
 47         0.0000000000e+00
 48         0.0000000000e+00
 49         8.9763764630e-15
 50         0.0000000000e+00
 51         0.0000000000e+00
 52        -2.8112092780e-14
 53         0.0000000000e+00
 54         0.0000000000e+00
 55        -3.4840685209e-15
 56         0.0000000000e+00
 57         0.0000000000e+00
 58         0.0000000000e+00
 59         3.7438980772e-15
 60         0.0000000000e+00
 61         0.0000000000e+00
 62         0.0000000000e+00
 63         0.0000000000e+00
 64        -1.8586559148e-14
 65         0.0000000000e+00
 66         0.0000000000e+00
 67         0.0000000000e+00
 68         0.0000000000e+00
 69        -8.1753513279e-16
 70         0.0000000000e+00
 71         0.0000000000e+00
 72         0.0000000000e+00
 73        -1.0040325014e+00
 74         0.0000000000e+00
 Sym= A2
 Ene=         5.7383113793e+00
 Spin= Alpha
 Occup=         0.0000000000e+00
  1         0.0000000000e+00
  2         0.0000000000e+00
  3         0.0000000000e+00
  4         0.0000000000e+00
  5         0.0000000000e+00
  6         0.0000000000e+00
  7         0.0000000000e+00
  8         0.0000000000e+00
  9         0.0000000000e+00
 10         0.0000000000e+00
 11         0.0000000000e+00
 12         0.0000000000e+00
 13         0.0000000000e+00
 14         1.9612594861e-01
 15         0.0000000000e+00
 16         0.0000000000e+00
 17         0.0000000000e+00
 18         0.0000000000e+00
 19         0.0000000000e+00
 20         0.0000000000e+00
 21         0.0000000000e+00
 22         0.0000000000e+00
 23         0.0000000000e+00
 24         0.0000000000e+00
 25         0.0000000000e+00
 26         0.0000000000e+00
 27         0.0000000000e+00
 28         0.0000000000e+00
 29         0.0000000000e+00
 30         0.0000000000e+00
 31         0.0000000000e+00
 32         2.0390854630e-01
 33         0.0000000000e+00
 34         0.0000000000e+00
 35         0.0000000000e+00
 36         0.0000000000e+00
 37         3.3394774278e-02
 38         0.0000000000e+00
 39         0.0000000000e+00
 40         0.0000000000e+00
 41         0.0000000000e+00
 42        -5.2732859310e-01
 43         0.0000000000e+00
 44         0.0000000000e+00
 45         0.0000000000e+00
 46         0.0000000000e+00
 47         0.0000000000e+00
 48         0.0000000000e+00
 49         0.0000000000e+00
 50         0.0000000000e+00
 51         0.0000000000e+00
 52         0.0000000000e+00
 53         0.0000000000e+00
 54         0.0000000000e+00
 55         0.0000000000e+00
 56         0.0000000000e+00
 57         0.0000000000e+00
 58         0.0000000000e+00
 59         0.0000000000e+00
 60         0.0000000000e+00
 61         0.0000000000e+00
 62        -2.9963309660e-01
 63         0.0000000000e+00
 64         0.0000000000e+00
 65         0.0000000000e+00
 66         0.0000000000e+00
 67        -9.1779510551e-02
 68         0.0000000000e+00
 69         0.0000000000e+00
 70         0.0000000000e+00
 71         0.0000000000e+00
 72        -1.0375337339e+00
 73         0.0000000000e+00
 74         0.0000000000e+00
 Sym= A1
 Ene=         5.7383113793e+00
 Spin= Alpha
 Occup=         0.0000000000e+00
  1        -7.0604572298e-14
  2        -3.4639290706e-14
  3         2.0897131801e-14
  4         0.0000000000e+00
  5         0.0000000000e+00
  6         5.5961504595e-14
  7         0.0000000000e+00
  8         0.0000000000e+00
  9        -1.2910933702e-14
 10         1.3185946946e-14
 11         0.0000000000e+00
 12         0.0000000000e+00
 13         1.9612594861e-01
 14         0.0000000000e+00
 15        -4.0029051432e-14
 16        -8.1269051410e-14
 17        -2.3733568155e-14
 18        -5.6369852702e-14
 19         0.0000000000e+00
 20         0.0000000000e+00
 21        -1.4451412615e-14
 22         0.0000000000e+00
 23         0.0000000000e+00
 24         2.0216398559e-13
 25         0.0000000000e+00
 26         0.0000000000e+00
 27         2.8262943351e-15
 28        -1.4915262381e-14
 29         0.0000000000e+00
 30         0.0000000000e+00
 31         2.0390854630e-01
 32         0.0000000000e+00
 33        -6.1042274377e-15
 34         0.0000000000e+00
 35         0.0000000000e+00
 36         3.3394774278e-02
 37         0.0000000000e+00
 38         8.8930076569e-14
 39         0.0000000000e+00
 40         0.0000000000e+00
 41        -5.2732859310e-01
 42         0.0000000000e+00
 43         0.0000000000e+00
 44         0.0000000000e+00
 45         1.2019085769e-14
 46         4.6128294237e-14
 47         4.7387752706e-14
 48         1.3527215715e-13
 49         0.0000000000e+00
 50         0.0000000000e+00
 51         1.5251945968e-14
 52         0.0000000000e+00
 53         0.0000000000e+00
 54         7.2199869850e-14
 55         0.0000000000e+00
 56         0.0000000000e+00
 57         5.2057158036e-14
 58        -8.3691081110e-15
 59         0.0000000000e+00
 60         0.0000000000e+00
 61        -2.9963309660e-01
 62         0.0000000000e+00
 63         3.6311782915e-14
 64         0.0000000000e+00
 65         0.0000000000e+00
 66        -9.1779510551e-02
 67         0.0000000000e+00
 68         3.3164405976e-14
 69         0.0000000000e+00
 70         0.0000000000e+00
 71        -1.0375337339e+00
 72         0.0000000000e+00
 73         0.0000000000e+00
 74         0.0000000000e+00
 Sym= A1
 Ene=         5.7579286344e+00
 Spin= Alpha
 Occup=         0.0000000000e+00
  1         1.3433182125e+00
  2         1.0805609914e+00
  3        -3.1998466052e-01
  4         0.0000000000e+00
  5         0.0000000000e+00
  6        -1.0399408455e+00
  7         0.0000000000e+00
  8         0.0000000000e+00
  9         4.7890113724e-02
 10        -2.4200479283e-01
 11         0.0000000000e+00
 12         0.0000000000e+00
 13         1.0907227349e-14
 14         0.0000000000e+00
 15         7.0377212850e-01
 16         1.5086195746e+00
 17         6.3839665411e-01
 18         9.7140713584e-01
 19         0.0000000000e+00
 20         0.0000000000e+00
 21         2.1952633345e-01
 22         0.0000000000e+00
 23         0.0000000000e+00
 24        -4.2797245728e+00
 25         0.0000000000e+00
 26         0.0000000000e+00
 27        -1.7833790882e-01
 28         3.9461943883e-01
 29         0.0000000000e+00
 30         0.0000000000e+00
 31         1.0005586306e-14
 32         0.0000000000e+00
 33        -2.9683139489e-02
 34         0.0000000000e+00
 35         0.0000000000e+00
 36         2.8956050000e-15
 37         0.0000000000e+00
 38        -1.7310570737e+00
 39         0.0000000000e+00
 40         0.0000000000e+00
 41        -3.0640667969e-14
 42         0.0000000000e+00
 43         0.0000000000e+00
 44         0.0000000000e+00
 45        -2.2932488659e-01
 46        -8.8859239592e-01
 47        -9.0862774746e-01
 48        -2.8882280832e+00
 49         0.0000000000e+00
 50         0.0000000000e+00
 51        -2.2824261781e-01
 52         0.0000000000e+00
 53         0.0000000000e+00
 54        -1.6235672749e+00
 55         0.0000000000e+00
 56         0.0000000000e+00
 57        -1.1009731995e+00
 58         1.5756513832e-01
 59         0.0000000000e+00
 60         0.0000000000e+00
 61        -1.1057840649e-14
 62         0.0000000000e+00
 63        -8.3718533849e-01
 64         0.0000000000e+00
 65         0.0000000000e+00
 66        -8.6280470155e-15
 67         0.0000000000e+00
 68        -6.6341507864e-01
 69         0.0000000000e+00
 70         0.0000000000e+00
 71        -5.6064790374e-14
 72         0.0000000000e+00
 73         0.0000000000e+00
 74         0.0000000000e+00
 Sym= A2
 Ene=         6.4263423901e+00
 Spin= Alpha
 Occup=         0.0000000000e+00
  1         0.0000000000e+00
  2         0.0000000000e+00
  3         0.0000000000e+00
  4         0.0000000000e+00
  5         0.0000000000e+00
  6         0.0000000000e+00
  7         0.0000000000e+00
  8         0.0000000000e+00
  9         0.0000000000e+00
 10         0.0000000000e+00
 11         0.0000000000e+00
 12         0.0000000000e+00
 13         0.0000000000e+00
 14         4.0961168560e-02
 15         0.0000000000e+00
 16         0.0000000000e+00
 17         0.0000000000e+00
 18         0.0000000000e+00
 19         0.0000000000e+00
 20         0.0000000000e+00
 21         0.0000000000e+00
 22         0.0000000000e+00
 23         0.0000000000e+00
 24         0.0000000000e+00
 25         0.0000000000e+00
 26         0.0000000000e+00
 27         0.0000000000e+00
 28         0.0000000000e+00
 29         0.0000000000e+00
 30         0.0000000000e+00
 31         0.0000000000e+00
 32         3.5363972676e-02
 33         0.0000000000e+00
 34         0.0000000000e+00
 35         0.0000000000e+00
 36         0.0000000000e+00
 37         1.6439538753e-01
 38         0.0000000000e+00
 39         0.0000000000e+00
 40         0.0000000000e+00
 41         0.0000000000e+00
 42        -2.2907708270e-01
 43         0.0000000000e+00
 44         0.0000000000e+00
 45         0.0000000000e+00
 46         0.0000000000e+00
 47         0.0000000000e+00
 48         0.0000000000e+00
 49         0.0000000000e+00
 50         0.0000000000e+00
 51         0.0000000000e+00
 52         0.0000000000e+00
 53         0.0000000000e+00
 54         0.0000000000e+00
 55         0.0000000000e+00
 56         0.0000000000e+00
 57         0.0000000000e+00
 58         0.0000000000e+00
 59         0.0000000000e+00
 60         0.0000000000e+00
 61         0.0000000000e+00
 62         1.1384581553e+00
 63         0.0000000000e+00
 64         0.0000000000e+00
 65         0.0000000000e+00
 66         0.0000000000e+00
 67        -7.2654730959e-01
 68         0.0000000000e+00
 69         0.0000000000e+00
 70         0.0000000000e+00
 71         0.0000000000e+00
 72        -3.2959388220e-01
 73         0.0000000000e+00
 74         0.0000000000e+00
 Sym= A1
 Ene=         6.4263423901e+00
 Spin= Alpha
 Occup=         0.0000000000e+00
  1        -1.1160787110e-14
  2        -4.3824735247e-15
  3         1.5552643015e-16
  4         0.0000000000e+00
  5         0.0000000000e+00
  6         4.3801336206e-15
  7         0.0000000000e+00
  8         0.0000000000e+00
  9        -4.1228230464e-15
 10         7.1116917227e-15
 11         0.0000000000e+00
 12         0.0000000000e+00
 13         4.0961168560e-02
 14         0.0000000000e+00
 15        -8.4508075820e-15
 16        -1.8768573593e-14
 17        -7.7846369368e-16
 18         9.1228514613e-16
 19         0.0000000000e+00
 20         0.0000000000e+00
 21        -6.4254312202e-15
 22         0.0000000000e+00
 23         0.0000000000e+00
 24         3.1626727561e-14
 25         0.0000000000e+00
 26         0.0000000000e+00
 27         1.5689306618e-15
 28        -1.3780268262e-14
 29         0.0000000000e+00
 30         0.0000000000e+00
 31         3.5363972676e-02
 32         0.0000000000e+00
 33         3.4660981277e-15
 34         0.0000000000e+00
 35         0.0000000000e+00
 36         1.6439538753e-01
 37         0.0000000000e+00
 38         1.5164849948e-14
 39         0.0000000000e+00
 40         0.0000000000e+00
 41        -2.2907708270e-01
 42         0.0000000000e+00
 43         0.0000000000e+00
 44         0.0000000000e+00
 45         1.5009626614e-15
 46         9.5437102730e-15
 47         1.1837889895e-14
 48         1.2381704973e-14
 49         0.0000000000e+00
 50         0.0000000000e+00
 51         4.9349946510e-15
 52         0.0000000000e+00
 53         0.0000000000e+00
 54         1.3686451310e-14
 55         0.0000000000e+00
 56         0.0000000000e+00
 57         3.4144412092e-15
 58         1.2210897007e-14
 59         0.0000000000e+00
 60         0.0000000000e+00
 61         1.1384581553e+00
 62         0.0000000000e+00
 63        -2.5473127226e-15
 64         0.0000000000e+00
 65         0.0000000000e+00
 66        -7.2654730959e-01
 67         0.0000000000e+00
 68         1.4196575746e-15
 69         0.0000000000e+00
 70         0.0000000000e+00
 71        -3.2959388220e-01
 72         0.0000000000e+00
 73         0.0000000000e+00
 74         0.0000000000e+00
 Sym= A1
 Ene=         6.8459268330e+00
 Spin= Alpha
 Occup=         0.0000000000e+00
  1         1.0675831366e-01
  2         2.8381845002e-01
  3        -3.9722318849e-01
  4         0.0000000000e+00
  5         0.0000000000e+00
  6        -4.6624849680e-01
  7         0.0000000000e+00
  8         0.0000000000e+00
  9        -3.5086802269e-01
 10         4.2604227672e-01
 11         0.0000000000e+00
 12         0.0000000000e+00
 13         4.5855438833e-16
 14         0.0000000000e+00
 15         1.1732627039e-01
 16        -3.2293084639e-01
 17        -9.9552172995e-01
 18         5.9593979662e-01
 19         0.0000000000e+00
 20         0.0000000000e+00
 21         5.0474429207e-01
 22         0.0000000000e+00
 23         0.0000000000e+00
 24        -8.1517491077e-01
 25         0.0000000000e+00
 26         0.0000000000e+00
 27         4.4303996855e-01
 28        -1.0251026116e+00
 29         0.0000000000e+00
 30         0.0000000000e+00
 31        -1.1269558839e-16
 32         0.0000000000e+00
 33         6.1641490753e-01
 34         0.0000000000e+00
 35         0.0000000000e+00
 36        -1.5013073791e-15
 37         0.0000000000e+00
 38        -8.7306339964e-02
 39         0.0000000000e+00
 40         0.0000000000e+00
 41         7.5487730394e-16
 42         0.0000000000e+00
 43         0.0000000000e+00
 44         0.0000000000e+00
 45        -5.1777505310e-01
 46        -6.5307396357e-01
 47         3.6569756309e-01
 48         3.0395189860e-01
 49         0.0000000000e+00
 50         0.0000000000e+00
 51        -1.8484724725e-01
 52         0.0000000000e+00
 53         0.0000000000e+00
 54         6.9277633502e-01
 55         0.0000000000e+00
 56         0.0000000000e+00
 57        -1.3305870241e-01
 58         9.4634016849e-01
 59         0.0000000000e+00
 60         0.0000000000e+00
 61        -9.7560647254e-15
 62         0.0000000000e+00
 63         5.9525665036e-02
 64         0.0000000000e+00
 65         0.0000000000e+00
 66         6.1891912087e-15
 67         0.0000000000e+00
 68         6.3292424437e-01
 69         0.0000000000e+00
 70         0.0000000000e+00
 71         9.3905666749e-16
 72         0.0000000000e+00
 73         0.0000000000e+00
 74         0.0000000000e+00
 Sym= B1
 Ene=         6.9014700726e+00
 Spin= Alpha
 Occup=         0.0000000000e+00
  1         0.0000000000e+00
  2         0.0000000000e+00
  3         0.0000000000e+00
  4         9.1004860721e-02
  5         0.0000000000e+00
  6         0.0000000000e+00
  7         4.0671012480e-01
  8         0.0000000000e+00
  9         0.0000000000e+00
 10         0.0000000000e+00
 11        -3.0091862261e-01
 12         0.0000000000e+00
 13         0.0000000000e+00
 14         0.0000000000e+00
 15         0.0000000000e+00
 16         0.0000000000e+00
 17         0.0000000000e+00
 18         0.0000000000e+00
 19         9.4247040988e-02
 20         0.0000000000e+00
 21         0.0000000000e+00
 22         2.9239574589e-01
 23         0.0000000000e+00
 24         0.0000000000e+00
 25         1.2774496767e-01
 26         0.0000000000e+00
 27         0.0000000000e+00
 28         0.0000000000e+00
 29        -2.3566284856e-01
 30         0.0000000000e+00
 31         0.0000000000e+00
 32         0.0000000000e+00
 33         0.0000000000e+00
 34        -7.6229596966e-01
 35         0.0000000000e+00
 36         0.0000000000e+00
 37         0.0000000000e+00
 38         0.0000000000e+00
 39        -2.1299682511e-01
 40         0.0000000000e+00
 41         0.0000000000e+00
 42         0.0000000000e+00
 43        -2.5119851811e-16
 44         0.0000000000e+00
 45         0.0000000000e+00
 46         0.0000000000e+00
 47         0.0000000000e+00
 48         0.0000000000e+00
 49         1.2008876779e-01
 50         0.0000000000e+00
 51         0.0000000000e+00
 52        -2.3303079334e-01
 53         0.0000000000e+00
 54         0.0000000000e+00
 55        -5.7286784029e-01
 56         0.0000000000e+00
 57         0.0000000000e+00
 58         0.0000000000e+00
 59         1.1914832232e+00
 60         0.0000000000e+00
 61         0.0000000000e+00
 62         0.0000000000e+00
 63         0.0000000000e+00
 64        -1.0673049825e+00
 65         0.0000000000e+00
 66         0.0000000000e+00
 67         0.0000000000e+00
 68         0.0000000000e+00
 69        -3.3605730783e-01
 70         0.0000000000e+00
 71         0.0000000000e+00
 72         0.0000000000e+00
 73         1.2275646832e-15
 74         0.0000000000e+00
 Sym= B2
 Ene=         6.9014700726e+00
 Spin= Alpha
 Occup=         0.0000000000e+00
  1         0.0000000000e+00
  2         0.0000000000e+00
  3         0.0000000000e+00
  4         0.0000000000e+00
  5         9.1004860721e-02
  6         0.0000000000e+00
  7         0.0000000000e+00
  8         4.0671012480e-01
  9         0.0000000000e+00
 10         0.0000000000e+00
 11         0.0000000000e+00
 12        -3.0091862261e-01
 13         0.0000000000e+00
 14         0.0000000000e+00
 15         0.0000000000e+00
 16         0.0000000000e+00
 17         0.0000000000e+00
 18         0.0000000000e+00
 19         0.0000000000e+00
 20         9.4247040988e-02
 21         0.0000000000e+00
 22         0.0000000000e+00
 23         2.9239574589e-01
 24         0.0000000000e+00
 25         0.0000000000e+00
 26         1.2774496767e-01
 27         0.0000000000e+00
 28         0.0000000000e+00
 29         0.0000000000e+00
 30        -2.3566284856e-01
 31         0.0000000000e+00
 32         0.0000000000e+00
 33         0.0000000000e+00
 34         0.0000000000e+00
 35        -7.6229596966e-01
 36         0.0000000000e+00
 37         0.0000000000e+00
 38         0.0000000000e+00
 39         0.0000000000e+00
 40        -2.1299682511e-01
 41         0.0000000000e+00
 42         0.0000000000e+00
 43         0.0000000000e+00
 44        -1.5490032688e-16
 45         0.0000000000e+00
 46         0.0000000000e+00
 47         0.0000000000e+00
 48         0.0000000000e+00
 49         0.0000000000e+00
 50         1.2008876779e-01
 51         0.0000000000e+00
 52         0.0000000000e+00
 53        -2.3303079334e-01
 54         0.0000000000e+00
 55         0.0000000000e+00
 56        -5.7286784029e-01
 57         0.0000000000e+00
 58         0.0000000000e+00
 59         0.0000000000e+00
 60         1.1914832232e+00
 61         0.0000000000e+00
 62         0.0000000000e+00
 63         0.0000000000e+00
 64         0.0000000000e+00
 65        -1.0673049825e+00
 66         0.0000000000e+00
 67         0.0000000000e+00
 68         0.0000000000e+00
 69         0.0000000000e+00
 70        -3.3605730783e-01
 71         0.0000000000e+00
 72         0.0000000000e+00
 73         0.0000000000e+00
 74         1.5974577995e-15
 Sym= B2
 Ene=         7.1127423483e+00
 Spin= Alpha
 Occup=         0.0000000000e+00
  1         0.0000000000e+00
  2         0.0000000000e+00
  3         0.0000000000e+00
  4         0.0000000000e+00
  5         5.3122508238e-01
  6         0.0000000000e+00
  7         0.0000000000e+00
  8         2.7397350140e-01
  9         0.0000000000e+00
 10         0.0000000000e+00
 11         0.0000000000e+00
 12        -5.8473838754e-01
 13         0.0000000000e+00
 14         0.0000000000e+00
 15         0.0000000000e+00
 16         0.0000000000e+00
 17         0.0000000000e+00
 18         0.0000000000e+00
 19         0.0000000000e+00
 20        -4.6376103627e-02
 21         0.0000000000e+00
 22         0.0000000000e+00
 23        -1.9498727032e+00
 24         0.0000000000e+00
 25         0.0000000000e+00
 26         6.3102454117e-02
 27         0.0000000000e+00
 28         0.0000000000e+00
 29         0.0000000000e+00
 30         9.8117137259e-01
 31         0.0000000000e+00
 32         0.0000000000e+00
 33         0.0000000000e+00
 34         0.0000000000e+00
 35         5.6173683483e-01
 36         0.0000000000e+00
 37         0.0000000000e+00
 38         0.0000000000e+00
 39         0.0000000000e+00
 40        -1.7485715959e+00
 41         0.0000000000e+00
 42         0.0000000000e+00
 43         0.0000000000e+00
 44         1.7155485861e-16
 45         0.0000000000e+00
 46         0.0000000000e+00
 47         0.0000000000e+00
 48         0.0000000000e+00
 49         0.0000000000e+00
 50        -4.6133995818e-01
 51         0.0000000000e+00
 52         0.0000000000e+00
 53         1.8870341299e+00
 54         0.0000000000e+00
 55         0.0000000000e+00
 56         4.2796289385e-01
 57         0.0000000000e+00
 58         0.0000000000e+00
 59         0.0000000000e+00
 60         2.1664396638e-01
 61         0.0000000000e+00
 62         0.0000000000e+00
 63         0.0000000000e+00
 64         0.0000000000e+00
 65         1.5742444132e+00
 66         0.0000000000e+00
 67         0.0000000000e+00
 68         0.0000000000e+00
 69         0.0000000000e+00
 70         1.3231153203e+00
 71         0.0000000000e+00
 72         0.0000000000e+00
 73         0.0000000000e+00
 74        -7.1304698882e-16
 Sym= B1
 Ene=         7.1127423483e+00
 Spin= Alpha
 Occup=         0.0000000000e+00
  1         0.0000000000e+00
  2         0.0000000000e+00
  3         0.0000000000e+00
  4         5.3122508238e-01
  5         0.0000000000e+00
  6         0.0000000000e+00
  7         2.7397350140e-01
  8         0.0000000000e+00
  9         0.0000000000e+00
 10         0.0000000000e+00
 11        -5.8473838754e-01
 12         0.0000000000e+00
 13         0.0000000000e+00
 14         0.0000000000e+00
 15         0.0000000000e+00
 16         0.0000000000e+00
 17         0.0000000000e+00
 18         0.0000000000e+00
 19        -4.6376103627e-02
 20         0.0000000000e+00
 21         0.0000000000e+00
 22        -1.9498727032e+00
 23         0.0000000000e+00
 24         0.0000000000e+00
 25         6.3102454117e-02
 26         0.0000000000e+00
 27         0.0000000000e+00
 28         0.0000000000e+00
 29         9.8117137259e-01
 30         0.0000000000e+00
 31         0.0000000000e+00
 32         0.0000000000e+00
 33         0.0000000000e+00
 34         5.6173683483e-01
 35         0.0000000000e+00
 36         0.0000000000e+00
 37         0.0000000000e+00
 38         0.0000000000e+00
 39        -1.7485715959e+00
 40         0.0000000000e+00
 41         0.0000000000e+00
 42         0.0000000000e+00
 43        -1.1022212997e-15
 44         0.0000000000e+00
 45         0.0000000000e+00
 46         0.0000000000e+00
 47         0.0000000000e+00
 48         0.0000000000e+00
 49        -4.6133995818e-01
 50         0.0000000000e+00
 51         0.0000000000e+00
 52         1.8870341299e+00
 53         0.0000000000e+00
 54         0.0000000000e+00
 55         4.2796289385e-01
 56         0.0000000000e+00
 57         0.0000000000e+00
 58         0.0000000000e+00
 59         2.1664396638e-01
 60         0.0000000000e+00
 61         0.0000000000e+00
 62         0.0000000000e+00
 63         0.0000000000e+00
 64         1.5742444132e+00
 65         0.0000000000e+00
 66         0.0000000000e+00
 67         0.0000000000e+00
 68         0.0000000000e+00
 69         1.3231153203e+00
 70         0.0000000000e+00
 71         0.0000000000e+00
 72         0.0000000000e+00
 73        -2.7678338920e-15
 74         0.0000000000e+00
 Sym= A1
 Ene=         7.5617177564e+00
 Spin= Alpha
 Occup=         0.0000000000e+00
  1         6.2161017683e-01
  2         8.9929476060e-01
  3        -5.4228103105e-02
  4         0.0000000000e+00
  5         0.0000000000e+00
  6        -6.7253412796e-01
  7         0.0000000000e+00
  8         0.0000000000e+00
  9        -4.2398795587e-01
 10         2.0681677652e-01
 11         0.0000000000e+00
 12         0.0000000000e+00
 13         1.2022161965e-15
 14         0.0000000000e+00
 15         2.2879391569e-02
 16        -4.3720701331e-01
 17        -1.5005995061e+00
 18         3.5454026104e-01
 19         0.0000000000e+00
 20         0.0000000000e+00
 21         1.1797677578e+00
 22         0.0000000000e+00
 23         0.0000000000e+00
 24        -2.2818414611e+00
 25         0.0000000000e+00
 26         0.0000000000e+00
 27        -1.7737703036e-01
 28        -4.6937930870e-01
 29         0.0000000000e+00
 30         0.0000000000e+00
 31         1.0163505550e-15
 32         0.0000000000e+00
 33         6.0749535441e-01
 34         0.0000000000e+00
 35         0.0000000000e+00
 36         1.6604335604e-15
 37         0.0000000000e+00
 38        -1.0824442677e+00
 39         0.0000000000e+00
 40         0.0000000000e+00
 41        -3.9681948714e-15
 42         0.0000000000e+00
 43         0.0000000000e+00
 44         0.0000000000e+00
 45        -2.4147866397e-02
 46        -4.3994728248e-01
 47        -1.0143270934e+00
 48        -8.7562690532e-02
 49         0.0000000000e+00
 50         0.0000000000e+00
 51        -6.4673200618e-01
 52         0.0000000000e+00
 53         0.0000000000e+00
 54         4.8883387081e-01
 55         0.0000000000e+00
 56         0.0000000000e+00
 57         4.0127626949e-01
 58        -7.2462293301e-01
 59         0.0000000000e+00
 60         0.0000000000e+00
 61         9.4533348314e-15
 62         0.0000000000e+00
 63         1.3596030035e+00
 64         0.0000000000e+00
 65         0.0000000000e+00
 66        -7.9315951162e-15
 67         0.0000000000e+00
 68         8.9012661722e-01
 69         0.0000000000e+00
 70         0.0000000000e+00
 71        -4.2910285450e-15
 72         0.0000000000e+00
 73         0.0000000000e+00
 74         0.0000000000e+00
 Sym= A1
 Ene=         8.9167603829e+00
 Spin= Alpha
 Occup=         0.0000000000e+00
  1         4.1197215376e-01
  2         8.0302411608e+00
  3         4.2978871025e-01
  4         0.0000000000e+00
  5         0.0000000000e+00
  6        -9.1011135227e-01
  7         0.0000000000e+00
  8         0.0000000000e+00
  9        -4.1170682642e+00
 10         1.0034722335e+00
 11         0.0000000000e+00
 12         0.0000000000e+00
 13        -5.1309461804e-17
 14         0.0000000000e+00
 15        -4.4166741844e+00
 16        -7.7285822430e+00
 17         1.7244156053e+00
 18        -3.0924142862e+00
 19         0.0000000000e+00
 20         0.0000000000e+00
 21         3.3104627149e-01
 22         0.0000000000e+00
 23         0.0000000000e+00
 24        -5.4912767985e+00
 25         0.0000000000e+00
 26         0.0000000000e+00
 27        -1.7545302653e-01
 28        -7.4016838431e-01
 29         0.0000000000e+00
 30         0.0000000000e+00
 31        -7.7281274336e-16
 32         0.0000000000e+00
 33        -2.1473955742e+00
 34         0.0000000000e+00
 35         0.0000000000e+00
 36        -7.2229492937e-16
 37         0.0000000000e+00
 38        -1.1068863626e+00
 39         0.0000000000e+00
 40         0.0000000000e+00
 41         3.6539811691e-16
 42         0.0000000000e+00
 43         0.0000000000e+00
 44         0.0000000000e+00
 45        -1.4855079450e+00
 46        -2.2119167699e+00
 47         8.3143321192e-01
 48         3.3053945566e+00
 49         0.0000000000e+00
 50         0.0000000000e+00
 51        -2.2950444376e-01
 52         0.0000000000e+00
 53         0.0000000000e+00
 54        -1.6614566622e-02
 55         0.0000000000e+00
 56         0.0000000000e+00
 57         1.1071671866e+00
 58        -2.3867383892e-01
 59         0.0000000000e+00
 60         0.0000000000e+00
 61        -8.7200712513e-16
 62         0.0000000000e+00
 63         4.9814028125e-01
 64         0.0000000000e+00
 65         0.0000000000e+00
 66         1.3150055427e-15
 67         0.0000000000e+00
 68         2.9114771695e-02
 69         0.0000000000e+00
 70         0.0000000000e+00
 71         1.0613641775e-15
 72         0.0000000000e+00
 73         0.0000000000e+00
 74         0.0000000000e+00
 Sym= A1
 Ene=         1.5509411069e+01
 Spin= Alpha
 Occup=         0.0000000000e+00
  1         7.3217239675e-01
  2        -1.7105916611e+00
  3        -1.0154128307e+00
  4         0.0000000000e+00
  5         0.0000000000e+00
  6        -2.8585462673e-01
  7         0.0000000000e+00
  8         0.0000000000e+00
  9         5.6983677553e-01
 10        -2.7688627292e-01
 11         0.0000000000e+00
 12         0.0000000000e+00
 13         2.8092692104e-16
 14         0.0000000000e+00
 15         3.8164934278e+00
 16         7.1572987393e+00
 17        -9.8824816597e-01
 18         3.2915383037e+00
 19         0.0000000000e+00
 20         0.0000000000e+00
 21        -3.4693567180e-02
 22         0.0000000000e+00
 23         0.0000000000e+00
 24        -6.3658576221e+00
 25         0.0000000000e+00
 26         0.0000000000e+00
 27         7.2150151232e-01
 28         1.5351718322e+00
 29         0.0000000000e+00
 30         0.0000000000e+00
 31        -1.9373860237e-16
 32         0.0000000000e+00
 33         2.8686231487e+00
 34         0.0000000000e+00
 35         0.0000000000e+00
 36         9.9305570253e-16
 37         0.0000000000e+00
 38        -1.5499884866e+00
 39         0.0000000000e+00
 40         0.0000000000e+00
 41        -1.3723295569e-15
 42         0.0000000000e+00
 43         0.0000000000e+00
 44         0.0000000000e+00
 45        -4.3807156324e+00
 46        -7.1571559240e+00
 47         2.0848337353e+00
 48        -4.2096040623e+00
 49         0.0000000000e+00
 50         0.0000000000e+00
 51         3.7717051457e-01
 52         0.0000000000e+00
 53         0.0000000000e+00
 54        -4.5446263498e+00
 55         0.0000000000e+00
 56         0.0000000000e+00
 57        -1.5805242494e+00
 58        -4.7273256680e-01
 59         0.0000000000e+00
 60         0.0000000000e+00
 61         2.1241461448e-15
 62         0.0000000000e+00
 63        -1.1403832928e+00
 64         0.0000000000e+00
 65         0.0000000000e+00
 66        -2.4045592944e-15
 67         0.0000000000e+00
 68        -3.2795896170e-01
 69         0.0000000000e+00
 70         0.0000000000e+00
 71        -9.5556507937e-17
 72         0.0000000000e+00
 73         0.0000000000e+00
 74         0.0000000000e+00
